LAMMPS (5 Jun 2019)
OMP_NUM_THREADS environment is not set. Defaulting to 1 thread. (src/comm.cpp:88)
  using 1 OpenMP thread(s) per MPI task


# ----------------- Init Section -----------------

include "system.in.init"
        units lj
        atom_style angle
        pair_style hybrid lj/expand/twopiece 2.5 soft/shift 0.3 zero 1 morse 2.5
        bond_style hybrid harmonic
        angle_style hybrid harmonic
        special_bonds lj 0.0 0.0 0.0


# ----------------- Atom Definition Section -----------------

read_data "system.data"
  orthogonal box = (-20 -20 -20) to (20 20 20)
  1 by 1 by 1 MPI processor grid
  reading atoms ...
  825 atoms
  scanning bonds ...
  1 = max bonds/atom
  scanning angles ...
  1 = max angles/atom
  reading bonds ...
  800 bonds
  reading angles ...
  725 angles
  2 = max # of 1-2 neighbors
  2 = max # of 1-3 neighbors
  4 = max # of 1-4 neighbors
  6 = max # of special neighbors
  special bonds CPU = 0.00457134 secs
  read_data CPU = 0.0221439 secs

# ----------------- Settings Section -----------------

include "system.in.settings"
       pair_coeff 2 2 lj/expand/twopiece 0.5 1 0.5 0.
        pair_coeff 3 3 lj/expand/twopiece 1.0 1 0.5 0.
        pair_coeff 4 4 lj/expand/twopiece 1.0 1 0.5 0.
        pair_coeff 3 4 lj/expand/twopiece 1.0 1 0.5 0.
        pair_coeff 2 3 lj/expand/twopiece 0.5 1 0.5 0.
        pair_coeff 2 4 lj/expand/twopiece 0.5 1 0.5 0.

        pair_coeff 5 5 soft/shift 1.5 0.2
pair_coeff 2 5 zero
pair_coeff 1 5 zero
pair_coeff 3 5 zero
pair_coeff 4 5 zero

        pair_coeff 8 8 lj/expand/twopiece 0.5 1 0.5 0.
pair_coeff 5 8 lj/expand/twopiece 0.5 1 0.5 0.
pair_coeff 2 8 zero
pair_coeff 1 8 morse 100 4 0.5
pair_coeff 3 8 zero
pair_coeff 4 8 zero
pair_coeff 6 8 zero
pair_coeff 7 8 zero

        pair_coeff 6 6 soft/shift 1.5 0.2
pair_coeff 2 6 zero
pair_coeff 1 6 zero
pair_coeff 3 6 zero
pair_coeff 4 6 zero
        pair_coeff 6 7 soft/shift 1.5 0.2

        pair_coeff 7 7 soft/shift 1.5 0.2
pair_coeff 2 7 zero
pair_coeff 1 7 zero
pair_coeff 3 7 zero
pair_coeff 4 7 zero

        pair_coeff 1 1 lj/expand/twopiece 0.5 1 0.8 0.
        pair_coeff 1 2 lj/expand/twopiece 0.5 1 0.8 0.
        pair_coeff 1 3 lj/expand/twopiece 0.5 1 0.8 0.
        pair_coeff 1 4 lj/expand/twopiece 0.5 1 0.8 0.


        bond_coeff 1 harmonic 1000 0.4
        bond_coeff 2 harmonic 1000 0.4
        bond_coeff 3 harmonic 1000 0.15

        angle_coeff 1 harmonic 20 180
        angle_coeff 2 harmonic 20 180
        angle_coeff 3 harmonic 20 180
        angle_coeff 4 harmonic 20 180


# ----------------- Run Section -----------------

include "system.in.run"
  compute bcomp all property/local btype batom1 batom2
  dump dxyz all atom 1000 poly.lammpstrj
  dump bdump all local 1000 bonddump.dump c_bcomp[1] c_bcomp[2] c_bcomp[3]

  thermo 200
  minimize 1.0e-6 1.0e-8 10000 100000
WARNING: Using 'neigh_modify every 1 delay 0 check yes' setting during minimization (src/min.cpp:168)
Neighbor list info ...
  update every 1 steps, delay 0 steps, check yes
  max neighbors/atom: 2000, page size: 100000
  master list distance cutoff = 2.8
  ghost atom cutoff = 2.8
  binsize = 1.4, bins = 29 29 29
  5 neighbor lists, perpetual/occasional/extra = 5 0 0
  (1) pair lj/expand/twopiece, perpetual, skip from (5)
      attributes: half, newton on
      pair build: skip
      stencil: none
      bin: none
  (2) pair soft/shift, perpetual, skip from (5)
      attributes: half, newton on
      pair build: skip
      stencil: none
      bin: none
  (3) pair zero, perpetual, skip from (5)
      attributes: half, newton on
      pair build: skip
      stencil: none
      bin: none
  (4) pair morse, perpetual, skip from (5)
      attributes: half, newton on
      pair build: skip
      stencil: none
      bin: none
  (5) neighbor class addition, perpetual
      attributes: half, newton on
      pair build: half/bin/newton
      stencil: half/bin/3d/newton
      bin: standard
Per MPI rank memory allocation (min/avg/max) = 10.11 | 10.11 | 10.11 Mbytes
Step Temp E_pair E_mol TotEng Press 
       0            0  -0.00138277    661.87322    661.87184   -6.0583858 
      64            0 -0.0013469811   0.12984268    0.1284957 -0.027840586 
Loop time of 0.0500347 on 1 procs for 64 steps with 825 atoms

94.5% CPU use with 1 MPI tasks x 1 OpenMP threads

Minimization stats:
  Stopping criterion = energy tolerance
  Energy initial, next-to-last, final = 
         661.871839472     0.128495796355     0.128495697575
  Force two-norm initial, final = 69027.6 269.236
  Force max component initial, final = 3958.08 21.7372
  Final line search alpha, max atom move = 0.00115009 0.0249997
  Iterations, force evaluations = 64 191

MPI task timing breakdown:
Section |  min time  |  avg time  |  max time  |%varavg| %total
---------------------------------------------------------------
Pair    | 0.014244   | 0.014244   | 0.014244   |   0.0 | 28.47
Bond    | 0.020481   | 0.020481   | 0.020481   |   0.0 | 40.93
Neigh   | 0.0079914  | 0.0079914  | 0.0079914  |   0.0 | 15.97
Comm    | 0.00028183 | 0.00028183 | 0.00028183 |   0.0 |  0.56
Output  | 0          | 0          | 0          |   0.0 |  0.00
Modify  | 0          | 0          | 0          |   0.0 |  0.00
Other   |            | 0.007036   |            |       | 14.06

Nlocal:    825 ave 825 max 825 min
Histogram: 1 0 0 0 0 0 0 0 0 0
Nghost:    0 ave 0 max 0 min
Histogram: 1 0 0 0 0 0 0 0 0 0
Neighs:    2120 ave 2120 max 2120 min
Histogram: 1 0 0 0 0 0 0 0 0 0

Total # of neighbors = 2120
Ave neighs/atom = 2.5697
Ave special neighs/atom = 5.63636
Neighbor list builds = 11
Dangerous builds = 0
  timestep 0.001
  velocity all create 3.0 49840
  fix   fxnvt all nvt temp 3.0 3.0 500.0
  run   500000
Neighbor list info ...
  update every 1 steps, delay 10 steps, check yes
  max neighbors/atom: 2000, page size: 100000
  master list distance cutoff = 2.8
  ghost atom cutoff = 2.8
  binsize = 1.4, bins = 29 29 29
  5 neighbor lists, perpetual/occasional/extra = 5 0 0
  (1) pair lj/expand/twopiece, perpetual, skip from (5)
      attributes: half, newton on
      pair build: skip
      stencil: none
      bin: none
  (2) pair soft/shift, perpetual, skip from (5)
      attributes: half, newton on
      pair build: skip
      stencil: none
      bin: none
  (3) pair zero, perpetual, skip from (5)
      attributes: half, newton on
      pair build: skip
      stencil: none
      bin: none
  (4) pair morse, perpetual, skip from (5)
      attributes: half, newton on
      pair build: skip
      stencil: none
      bin: none
  (5) neighbor class addition, perpetual
      attributes: half, newton on
      pair build: half/bin/newton
      stencil: half/bin/3d/newton
      bin: standard
Per MPI rank memory allocation (min/avg/max) = 10.18 | 10.18 | 10.18 Mbytes
Step Temp E_pair E_mol TotEng Press 
      64            3 -0.0013469811   0.12984268    4.6230412  0.010784414 
     200    1.8526209 -0.0018966223    1.8553989    4.6290651 -0.018530462 
     400    1.8022921 -0.0077516313    1.9371553     4.629565  0.016724334 
     600     1.609145 -0.027280852     2.247402    4.6309129  0.011234904 
     800    1.6690792 -0.049336063    2.1787087    4.6299568 -0.003408942 
    1000    1.6778499 -0.058482392    2.1745752    4.6298171 -0.0013066067 
    1200    1.6811252 -0.062709436    2.1733186    4.6292404  0.011332594 
    1400    1.6604778 -0.070894009     2.213481    4.6302846 -0.0069304158 
    1600    1.6730121 -0.077237112    2.2013351    4.6305743 0.0020817875 
    1800    1.7325193 -0.073378198     2.106989    4.6292397 0.0045745661 
    2000    1.7032671 -0.061554079    2.1399759    4.6302257 -0.0023195261 
    2200    1.6386224 -0.068252857    2.2434672    4.6301687   0.00214402 
    2400    1.6312307  -0.07284299    2.2587791    4.6298163 -0.00018057052 
    2600    1.6365988 -0.083365012    2.2627794     4.631337 0.0052476225 
    2800    1.6207125 -0.080976139    2.2835032    4.6306491 0.0024822098 
    3000    1.6708991 -0.084713203    2.2124494    4.6310468 -0.00046243526 
    3200    1.6250102 -0.077214676    2.2732063    4.6305524 -0.0057767024 
    3400    1.6676255 -0.083865834    2.2165957    4.6311362 0.0045139387 
    3600    1.6948726 -0.084401464    2.1759775    4.6308033 0.0023499235 
    3800    1.7165014 -0.064959817    2.1248488    4.6315201  0.003389191 
    4000    1.6307771 -0.069250534    2.2578743    4.6318243 -0.0071510025 
    4200    1.7099631 -0.076506937    2.1468278    4.6321564   0.00145575 
    4400    1.6431297 -0.069962098    2.2397758    4.6315207  0.005303176 
    4600    1.6063063 -0.067028912    2.2913229    4.6308329 0.0010143143 
    4800    1.5726916 -0.062319157    2.3372627    4.6311215 -0.0022019773 
    5000    1.6326166 -0.068520949     2.253901    4.6313366 0.0026417415 
    5200    1.6428338 -0.066822694    2.2361188    4.6305598 0.0058789184 
    5400    1.6408508 -0.059031052    2.2312651    4.6305269 -0.0075352205 
    5600    1.6901464 -0.058225831    2.1568543     4.630775 0.0068354622 
    5800    1.6652674 -0.054577066    2.1902148    4.6305111 0.00026050075 
    6000    1.6230547 -0.056567936    2.2550759     4.630139 -0.0012361052 
    6200    1.6750664 -0.057767504    2.1792398    4.6310263 0.0011061067 
    6400    1.6648391 -0.056558101    2.1931668    4.6308403 0.0002434059 
    6600    1.6872481 -0.056417317    2.1592155    4.6306026 0.0062533404 
    6800    1.6367346 -0.053385888    2.2325756    4.6313158 0.0034781841 
    7000    1.7002251 -0.058788603    2.1419185    4.6303761 0.00073664539 
    7200    1.6955072 -0.051696381    2.1421655    4.6306471 -0.00022869393 
    7400     1.709405 -0.043766991    2.1135204    4.6307529 0.0043775329 
    7600    1.7130675 -0.055477622    2.1205239    4.6315329 0.0012021559 
    7800    1.6877815 -0.053766159    2.1561241    4.6309615 -0.0015397728 
    8000    1.6216834 -0.050121928    2.2520626    4.6315173 -0.0015177786 
    8200    1.6297408  -0.04284563    2.2327414    4.6315439 -0.0038451374 
    8400    1.7572113 -0.038749314    2.0371706    4.6310433 0.0065690764 
    8600    1.6166123 -0.045127662    2.2547209    4.6315723 -0.00073952023 
    8800    1.6258009 -0.048239168    2.2441093    4.6316155 -0.0040928559 
    9000    1.6833843 -0.050212883    2.1593818    4.6311847 0.00063158613 
    9200      1.62295 -0.048140644    2.2483146     4.631648 -0.0033510873 
    9400    1.6641652 -0.047021776    2.1844951    4.6306954 -0.0020782727 
    9600    1.6558031 -0.048818168    2.1986443    4.6305203 0.00070962782 
    9800    1.6919459 -0.065898324    2.1616041    4.6305484 0.0015299276 
   10000    1.6728669  -0.06047464    2.1851569     4.630941 -0.0034304082 
   10200    1.6477041 -0.058184528     2.220436    4.6308117 0.0018912159 
   10400    1.6643068 -0.051056713    2.1894273    4.6318048 -0.00088095673 
   10600    1.6962119 -0.053704965    2.1440034    4.6315322 -0.0018740095 
   10800    1.6507215 -0.040533455    2.1987015     4.631249 -0.0016639375 
   11000    1.6139569 -0.042015456    2.2557454    4.6317308 0.0079026235 
   11200    1.7046402 -0.041687095    2.1198029    4.6319767 0.0014456595 
   11400    1.6474294 -0.035781422    2.2000559    4.6324232 0.00021029582 
   11600    1.6737654  -0.03447241    2.1595173    4.6326498 -0.00021815027 
   11800    1.6355856 -0.037063515    2.2193709     4.632712 0.0011092393 
   12000    1.6832814 -0.025222414    2.1365216    4.6331608 0.00053244557 
   12200    1.6215135 -0.020456317    2.2253772    4.6342429 0.00077426408 
   12400    1.6811912 -0.023548438    2.1386278    4.6338095 0.0023301978 
   12600     1.641823 -0.015605377    2.1898833    4.6340272 0.0021846352 
   12800    1.6602224  -0.01727377    2.1641389      4.63418 0.0023874752 
   13000    1.6607656 -0.017306216    2.1634217    4.6342444 -0.00034217996 
   13200    1.6471121 -0.017409301    2.1839929    4.6342571 0.0070650564 
   13400    1.6277516 -0.020729096    2.2160851    4.6340239 0.0011580975 
   13600    1.6489137 -0.013218973    2.1771415     4.634295  0.010562166 
   13800    1.6719692 -0.017054428    2.1460043    4.6338637 0.00041724533 
   14000    1.6470302 -0.017419221     2.184398    4.6345294 -0.00064526419 
   14200    1.5743676 -0.019154441    2.2949441    4.6344786 0.00090969508 
   14400    1.6466376 -0.013628814    2.1810934    4.6344272 -0.00065217939 
   14600    1.5909753 -0.012371785    2.2635741    4.6347726 -0.0023860518 
   14800    1.6194285 -0.014820988    2.2233985    4.6347758 0.0010822243 
   15000     1.625262 -0.013498668     2.213111    4.6345504 -0.003250471 
   15200    1.6325997 -0.013085081    2.2019517    4.6347978 0.0031031924 
   15400    1.6428913 -0.012632596    2.1860126    4.6347298 -0.00021146879 
   15600    1.6481489 -0.011737649    2.1774606    4.6349498 0.00066833024 
   15800    1.5897203 -0.012211777     2.265373    4.6348513 0.0048928306 
   16000    1.6208138 -0.015287043    2.2220709    4.6350576 -0.0022103389 
   16200    1.6313781 -0.014507523    2.2055589    4.6351524 -0.00066550479 
   16400    1.6598333 -0.0092827015    2.1590626    4.6365119 0.0034252165 
   16600    1.6443599 -0.0089493237    2.1817817    4.6363824 0.0008094667 
   16800    1.6611418 -0.010630975    2.1583489    4.6364104 -0.00073748846 
   17000    1.6171018 -0.0076816395    2.2218098    4.6368406 -0.0049250365 
   17200    1.6772224 -0.0070360294    2.1308947    4.6366427 0.0038308365 
   17400    1.6232949 -0.0062631027    2.2115844    4.6373122 0.0018198188 
   17600    1.5957082 -0.0088729543     2.254581     4.636369 -0.00084317152 
   17800     1.562346 -0.010743274    2.3071294    4.6370644 -0.00079358903 
   18000    1.5508353 -0.0022529321    2.3169784    4.6381587 -0.0019465504 
   18200    1.6623346 -0.0081236701    2.1551364    4.6374922 0.0027609969 
   18400    1.6457874 -0.0072089303    2.1789113    4.6373911 0.0021336066 
   18600    1.5946581 -0.0063337245    2.2548849     4.637639 -0.00051550426 
   18800    1.6542413 -0.0053079949    2.1648359    4.6378821 -0.003678183 
   19000    1.6214338 -0.0054249175    2.2138922    4.6376699 -0.0021422928 
   19200    1.6292641 -0.006305064    2.2031231    4.6377519 -0.0013404307 
   19400    1.5960325 -0.0045866492    2.2513953    4.6379555 0.0049067416 
   19600    1.5478092 -0.010481821    2.3299492    4.6383669 -0.00094453474 
   19800    1.5978689 -0.0094093908    2.2536485    4.6381372 -0.0010803411 
   20000    1.6420759  -0.00587652    2.1835969    4.6378486 -0.0020016119 
   20200    1.6276277 -0.010611719     2.209938    4.6378084 0.0023762451 
   20400    1.6233759 -0.0033323899    2.2091901    4.6379699 0.00035050629 
   20600    1.6081467 -0.0034229577    2.2320439    4.6379171 -0.0014404946 
   20800    1.6825242 -0.005693308     2.122717    4.6377509 -0.0014272948 
   21000    1.6228471 -0.0084731064    2.2147083    4.6375551 0.0042693891 
   21200    1.6323886 -0.0055838533     2.198374     4.638405 0.0064086707 
   21400    1.5965195 -0.0056327689    2.2520063      4.63825 0.0014755622 
   21600    1.6399404 -0.0079176422    2.1894554    4.6384666  0.001046608 
   21800    1.6726784 -0.0089400957    2.1407771    4.6378133 -0.002770884 
   22000    1.6258983 -0.0056601285    2.2092528     4.639484 -0.0020440927 
   22200    1.6328332 -0.0034767118     2.196678    4.6394823 -0.00062877502 
   22400    1.6279512 -0.0079994593     2.208414    4.6393814 -0.0032907414 
   22600    1.5944206 -0.002717217    2.2542993    4.6403141 0.0026353764 
   22800    1.6620098 -0.0056936974    2.1555667    4.6398659 -0.0031461562 
   23000    1.6311729 -0.0051775684    2.2010767    4.6396927 0.0018708262 
   23200    1.6303212 -0.0073106992      2.20441    4.6396168 0.0035842387 
   23400    1.5835993 -0.0068568654    2.2744832     4.640146 -0.0077784564 
   23600    1.6409819 -0.0088034033     2.190474    4.6401599 -0.0019408952 
   23800    1.6417668 -0.007721086    2.1875206    4.6394647 0.0011477862 
   24000    1.6674249 -0.0025691572    2.1452343    4.6407709 0.0041693967 
   24200    1.6262011 -0.0080877937     2.210636    4.6388931 -0.001136047 
   24400    1.6117722 -0.0048321427    2.2297254    4.6396212 -0.00084764018 
   24600    1.7073632 -0.010538574    2.0916924    4.6390943  0.001610917 
   24800    1.6779967 -0.0068902255    2.1316761      4.63873 0.0040066327 
   25000    1.6718757 -0.0079358687    2.1421614    4.6389993 0.0042456823 
   25200    1.6963709 -0.0082869236    2.1057568    4.6389419 0.0026771122 
   25400    1.6492179 -0.0070576127    2.1755809    4.6393516 0.0011330254 
   25600    1.6530731 -0.0035533814    2.1660896    4.6391402 0.0017919588 
   25800     1.674247 -0.0059302847    2.1373484    4.6397445 0.0021734503 
   26000    1.6245061 -0.0048649037    2.2105929    4.6395335 0.0032334928 
   26200    1.6830273 -0.0077844746    2.1256039    4.6393004 0.0072648746 
   26400     1.634244 -0.0088197403    2.1999115    4.6394865 0.0019837541 
   26600    1.6423117 -0.0061935227    2.1861532    4.6404412 0.0018976129 
   26800     1.634629 -0.0050800738    2.1970447    4.6409362 0.0014072658 
   27000    1.6355325 -0.0041536113    2.1949686      4.64114 -0.006983417 
   27200    1.6365122 -0.0028269258    2.1919074    4.6408733 0.0030776756 
   27400    1.6795152 -0.001295894    2.1260128    4.6409359  0.004403565 
   27600    1.6495026 -0.0063889278     2.176109    4.6409748 0.0025736637 
   27800    1.6236414 -0.0048928887    2.2141294    4.6417465 -0.00027346697 
   28000    1.5972698 -0.0021529069     2.251111    4.6419587 0.00030833555 
   28200    1.6275806 -0.0052241564    2.2079847    4.6411722 -0.001883075 
   28400    1.6263533 -0.0060073149    2.2108832    4.6414489 0.0037024783 
   28600     1.658679 -0.0036776629    2.1606705    4.6419955  0.001805518 
   28800    1.6554146 -0.007588564    2.1697508    4.6422743 -0.0003425387 
   29000    1.6801121 -0.0070887733    2.1318552    4.6418798 0.0067420763 
   29200    1.6168074 -0.0089629325    2.2293933    4.6427018 0.0014382056 
   29400     1.641344 -0.0091429537    2.1930385    4.6429274 -0.0003776118 
   29600    1.6479833 -0.013221208    2.1867168    4.6424743  0.005258511 
   29800    1.6382753 -0.014473257    2.2023045    4.6422654 0.0030511584 
   30000    1.6274164 -0.011139885    2.2152169    4.6422426  0.001351273 
   30200     1.612391 -0.0075036081    2.2346967     4.642848 -0.0020165245 
   30400    1.6262716 -0.0050144048    2.2116483    4.6430845 -7.2288557e-05 
   30600    1.6495785 -0.0056687279    2.1770966    4.6427965 0.0034451394 
   30800    1.6075657 -0.007873233    2.2422033    4.6427559 -0.00074190521 
   31000    1.5943612 -0.0093075621    2.2641714    4.6435069 -0.00023594151 
   31200    1.6345884 -0.0047890258    2.1994722    4.6435938 0.0018713221 
   31400    1.6475213 -0.0064805555    2.1814925    4.6432984 0.0014014326 
   31600    1.5667771 -0.0064723842    2.3034402    4.6442847 -0.00020149295 
   31800    1.7345212 -0.0035513485     2.047875    4.6429518 0.00011696315 
   32000    1.6541529 -0.0047168123    2.1698891     4.643394 0.0012436097 
   32200    1.6288701 0.0027208587    2.2006986     4.643763   0.00266392 
   32400    1.5518711 -0.0037612954    2.3231097    4.6443334 0.0027613693 
   32600    1.6580938 -0.0041698754    2.1637793    4.6437355 -0.0032396118 
   32800    1.6411778 -0.0072913131     2.192381    4.6438724 -0.00096451728 
   33000    1.5973254 -0.0045214713    2.2552403    4.6438027 0.0029119571 
   33200    1.6398134 -0.0059159119    2.1934556    4.6442784 0.0029085647 
   33400    1.6351914 -0.0051754539    2.1995719    4.6442104 0.0045501687 
   33600     1.680277 -0.0038641884    2.1303098     4.643806 -0.0024637454 
   33800    1.5611776 -0.0057047868    2.3119804    4.6452035 -0.001178537 
   34000    1.6794561 -0.0069554741    2.1340091    4.6431842 0.0021532442 
   34200     1.654458 -0.0046666813     2.169812    4.6438242 -0.00082226143 
   34400    1.6263132 -0.0037462443    2.2108544     4.643621  0.005412682 
   34600    1.6698899 -0.0056511101    2.1474603    4.6436078 0.0027743415 
   34800    1.6133977 -0.0052653377    2.2323162    4.6442139 0.0031127935 
   35000    1.6565739 -0.0049950289    2.1667942     4.643648 0.0019767664 
   35200    1.6258826 -0.0059965583    2.2150759     4.644947 -0.00084123341 
   35400    1.6309517 -0.0050149696    2.2059862    4.6444335 0.0018700057 
   35600    1.6309044 -0.0052835221     2.205511    4.6436188 0.0036499405 
   35800    1.6687441 -0.0044742506    2.1478639    4.6434716  0.004542429 
   36000    1.6486232 -0.0080942871    2.1815848    4.6434278 -0.0019050327 
   36200    1.6145323 -0.0064068272    2.2314488     4.643905 0.0042569015 
   36400    1.6561103 -0.0073728071     2.170229    4.6440106 0.0051790463 
   36600     1.646728 -0.0074274934    2.1841257    4.6437961 -0.004792579 
   36800    1.6533229 -0.0046948318    2.1713645    4.6436481 -0.0019212305 
   37000    1.6189635 -0.0030200889    2.2215787    4.6440604 0.0011460266 
   37200    1.6273658 -0.0030600016    2.2090001      4.64403 0.0035618343 
   37400    1.6027224 -0.0049865023    2.2482237    4.6444067 -0.001108961 
   37600    1.5891197 -0.0040749023    2.2684404    4.6451558 -0.002772911 
   37800    1.6415684 -0.0085053411    2.1933487    4.6442113 -0.0015730575 
   38000    1.6300522 -0.0048318566    2.2078559    4.6451387 0.0036240863 
   38200    1.6569826 -0.0088753384    2.1707854    4.6443712 -0.0047570447 
   38400    1.6083659 -0.004066578     2.238971    4.6445289 -0.001812721 
   38600    1.6456586 -0.0055106329    2.1835422    4.6435273 0.0018840648 
   38800    1.6540307 -0.0053350711    2.1709872    4.6436908 0.0036768083 
   39000    1.6087023 -0.0060924525    2.2399241    4.6439601 -0.0015521546 
   39200    1.6745399 -0.0091619862    2.1441201    4.6437235 0.0030402711 
   39400    1.6201025 -0.0057346169     2.222133    4.6436065 -0.0013213415 
   39600    1.6020505 -0.0029262477    2.2469915    4.6442282 0.0032847187 
   39800    1.6158965 -0.0054066185    2.2280965    4.6435966 0.0029811561 
   40000    1.6429127 -0.0078378651    2.1901362    4.6436803 0.0022143931 
   40200    1.6588939 -0.003351942     2.162267    4.6442398 0.0042081315 
   40400    1.6554648 -0.0093933854    2.1729295    4.6437233 0.0025771417 
   40600    1.6337244 -0.0082263045    2.2052655    4.6446554  0.004802369 
   40800    1.6017134 -0.0061581648    2.2512562     4.644756 0.0036397075 
   41000    1.6445756 -0.012761089    2.1924245    4.6435366 -0.0026590759 
   41200    1.6707897 -0.011137911    2.1513658    4.6433747 -0.00035056408 
   41400     1.574089 -0.0090728571    2.2948979    4.6440967   0.00113268 
   41600    1.6074266 -0.008863244    2.2449538    4.6443078 -0.0012756974 
   41800    1.6261854 -0.0095513957    2.2184358    4.6452058 -0.0049240634 
   42000    1.6485701 -0.0090796834      2.18325    4.6440282  0.004062496 
   42200    1.6830115 -0.0071344668    2.1293828    4.6437056 0.0032412575 
   42400    1.6221329 -0.012331872    2.2265965    4.6445147 -0.0064563666 
   42600     1.676519 -0.0069456788    2.1392457    4.6440303 0.0015278948 
   42800    1.6494107  -0.01138886    2.1850026    4.6447309  -0.00154455 
   43000    1.6532858 -0.012445341    2.1810608    4.6455382 -0.0019084029 
   43200    1.6105945  -0.01031523    2.2434776    4.6461258 0.0048692335 
   43400      1.59592 -0.0083711481     2.264798    4.6474052 -0.0049520845 
   43600    1.6540435 -0.0090707289    2.1775517    4.6465389 0.00069877459 
   43800    1.6233108 -0.0078660754    2.2229356    4.6470843 0.0019016756 
   44000     1.605139 -0.0055170342    2.2473436    4.6466167 -0.00041850873 
   44200    1.6430937 -0.004244053    2.1896624    4.6470715 -0.0026565352 
   44400    1.5637429 -0.0049509676    2.3094286    4.6472488 0.0022189018 
   44600    1.6446926 -0.0068916053    2.1897064    4.6468633 0.0026888028 
   44800    1.6162161 -0.0073321825     2.233438    4.6474914 0.0019934424 
   45000    1.5908279 -0.0064642708    2.2704049      4.64729 -0.0007672681 
   45200     1.620293 -0.0042170085    2.2246701    4.6479466  0.006729102 
   45400    1.5807319 -0.0061393337    2.2852879    4.6473723 -0.0064962745 
   45600    1.6736257 -0.0053316214    2.1451969    4.6472609 0.0034665579 
   45800    1.6654213 -0.0044603983    2.1566321    4.6472756 0.0055519347 
   46000     1.676482 -0.0020644075    2.1370558    4.6466661 0.0025430384 
   46200    1.6089303 -0.0035960466    2.2402906    4.6471646 -0.0027870322 
   46400    1.5978758 -0.0037929385    2.2563369    4.6464524 0.0024330422 
   46600     1.605238 -0.0054170165    2.2473588    4.6468802 0.00059948021 
   46800    1.6583906 -0.0051511027    2.1672321    4.6466517 -0.0034683049 
   47000    1.6500506 -0.0075296736    2.1820382    4.6465843 0.0077602631 
   47200    1.6607853 -0.0063269002    2.1649168    4.6467483 0.00021012186 
   47400    1.6464799 -0.0054021486    2.1854881    4.6468122 -0.0043026597 
   47600    1.5757816 -0.0060612405     2.292371    4.6471171 0.00013107022 
   47800    1.5895176 -0.0056319997    2.2711444    4.6468987 -0.0039438479 
   48000     1.589897 -0.0052467737    2.2698236    4.6465315  0.001305842 
   48200    1.6220975 -0.0055215911    2.2219434    4.6466189 -0.0025451316 
   48400    1.6820388 -0.0058733496    2.1322609    4.6463875 5.7064863e-05 
   48600    1.6238271 -0.0046963511    2.2187206    4.6468125 0.00090235078 
   48800    1.6458929 -0.0036648074    2.1847409    4.6469229 0.0035781594 
   49000    1.5948328 -0.00035942855    2.2581267    4.6471167 0.0013732585 
   49200    1.6413706  -0.00445366    2.1921987    4.6468166 -0.0005260984 
   49400    1.6409377 -0.0095487741    2.1985831    4.6474574 0.0011987548 
   49600    1.6202101 -0.0092945198    2.2291716    4.6472464 0.0014539234 
   49800    1.5993799 -0.0067639027    2.2581311    4.6475291 0.0013462467 
   50000    1.6893789 -0.0079133604    2.1241785    4.6472619 0.0012120323 
   50200    1.6343865 -0.0081176601    2.2067603    4.6472508 -0.0021503688 
   50400    1.6319042 -0.0049099193     2.207388    4.6473673 0.0064437496 
   50600    1.6772536 -0.0016172068    2.1360695    4.6472831  0.002368316 
   50800    1.5993857 -0.0042220141    2.2558647    4.6478133 0.0043779032 
   51000    1.6076187 -0.0046824177    2.2440688    4.6478915 -0.00084365814 
   51200    1.5756468 -0.0045453134     2.292278     4.648338 -0.0019911129 
   51400    1.6494542 -0.0043424488    2.1811797    4.6480195 0.0022858882 
   51600     1.620507 -0.0049199032    2.2252815    4.6481757 0.0012381475 
   51800    1.6160799 -0.0067878692    2.2341934     4.648587 0.0012315709 
   52000    1.6107488 -0.0087325025    2.2444282    4.6488903 -0.0034521669 
   52200     1.665256 -0.0064327049    2.1601889    4.6486125 0.0031589066 
   52400    1.6160329 -0.0068802003    2.2344486    4.6486795 0.0037372473 
   52600    1.5978668 -0.0079880305    2.2632698    4.6491768 -0.0030173183 
   52800    1.6024412 -0.008215468    2.2556514    4.6481843 -0.0016755752 
   53000     1.643101 -0.0065229108    2.1929895    4.6481306 -0.0036424736 
   53200     1.616478 -0.0073195019     2.234184    4.6486425 0.0018151539 
   53400    1.6484313 -0.0061624794    2.1845444    4.6480317  0.002917923 
   53600    1.6518557 -0.0082430039     2.182162    4.6486991 0.0045178325 
   53800    1.6116704 -0.0050295676    2.2392779    4.6488237 -0.0044737104 
   54000    1.6177763 -0.0027959502    2.2276946    4.6486218 -0.0044058132 
   54200    1.6142939 -0.0022496632    2.2323759     4.648632  0.004000033 
   54400    1.6288742 -0.0049650127    2.2134315    4.6488161 0.0016291877 
   54600    1.6560545 -0.006414732    2.1746405    4.6492965 -0.0011070656 
   54800    1.6638821 -0.0063815393    2.1625417     4.648958 0.0031879896 
   55000    1.6812725 -0.0041268434    2.1340958     4.648821 -0.00022208002 
   55200    1.5785894 -0.0058235317    2.2900123    4.6492028 0.0018267743 
   55400    1.5887994 -0.0075210608    2.2763986     4.649188 0.0053098301 
   55600    1.6149889 -0.006206555    2.2362465    4.6495869 -0.0037351094 
   55800    1.6664373 -0.006044401    2.1592468    4.6498284 0.0010160224 
   56000    1.6112128 -0.0046872567    2.2405398    4.6497423 0.0014037116 
   56200    1.6784679 -0.0044197918    2.1402524    4.6504826 0.0017420129 
   56400    1.6406167 -0.0019500173    2.1938789    4.6498709 0.0027760305 
   56600    1.5758752 -0.0021602906     2.291884    4.6506713 -0.0012150282 
   56800    1.6116398 -0.0023133697    2.2383468    4.6505629 0.0023206279 
   57000    1.5771887 -0.0040710146    2.2916658    4.6505102 0.0022645779 
   57200    1.6574888 -0.0054677023     2.172724    4.6504758 0.0023126412 
   57400    1.5951025 -0.0042001022    2.2653213    4.6508749 -0.0013130124 
   57600     1.682838 -0.0024490546    2.1318681    4.6506164 0.0050915358 
   57800    1.6022441 -0.0032448825    2.2537309     4.650939 -0.002659342 
   58000    1.6267378 -0.0059091235    2.2194605    4.6507003 -0.001770869 
   58200    1.6461812 -0.0044456307    2.1885762    4.6504094 -0.0025084112 
   58400     1.644266 -0.0040605883    2.1914567    4.6508056 0.0035132322 
   58600    1.6525614 -0.007159231    2.1825326    4.6512108 0.00047416685 
   58800    1.6412557 -0.0087450936     2.201206    4.6513604 -0.0029771979 
   59000    1.6334163 -0.0079699899    2.2122351    4.6514197 -0.0030727536 
   59200    1.6679285 -0.0075414218    2.1604128    4.6517315 0.0014879986 
   59400    1.6252446 -0.008100541     2.225271    4.6520823 0.00027808434 
   59600    1.6751643 -0.0090937807    2.1523452    4.6529521 0.0032126768 
   59800    1.6253126 -0.0057903608    2.2239211    4.6531445 0.00080313765 
   60000    1.6087647 -0.0024285486    2.2450471    4.6528405 0.0034729169 
   60200    1.6088503 -0.0058547952    2.2488846      4.65338 -0.0011669251 
   60400    1.5842089 -0.005751795    2.2862747    4.6539559 -0.0041294561 
   60600    1.5839245 -0.0049347541    2.2861969     4.654269 -0.0020178958 
   60800    1.6784836 -0.0069735512    2.1446192    4.6523192 1.4468804e-05 
   61000    1.6483266 -0.0051705411    2.1885051    4.6528276 0.0037717727 
   61200    1.6056453 -0.0057072522    2.2534718    4.6533131 -0.0014199169 
   61400    1.6333023 -0.012011848    2.2178244    4.6527964 0.0047381351 
   61600    1.6452217 -0.013098475    2.2010421    4.6527849 -0.0030719366 
   61800      1.65023 -0.016776275    2.1969976    4.6525659 -0.0020985191 
   62000     1.647145 -0.012313423    2.1971644    4.6525737 0.0035625104 
   62200    1.6834285 -0.0096883033    2.1403166    4.6527102 0.0028495412 
   62400    1.6086282 -0.011650993    2.2558778    4.6542444 -0.0026700941 
   62600    1.6423566 -0.0088532039    2.2020308    4.6537263 -0.00097723838 
   62800    1.6323309 -0.0084328823    2.2172298    4.6543255 0.0011183403 
   63000    1.6332126 -0.0090420915     2.216365    4.6541724 -0.00043720361 
   63200    1.6174377 -0.0071749175    2.2386543    4.6546951 0.0015071876 
   63400    1.6209003 -0.002944342    2.2304053    4.6558642 -0.00060630086 
   63600    1.6779207 -0.0060338957    2.1472221    4.6550185 -0.0033350089 
   63800    1.6982487 -0.0062089872    2.1162462    4.6543225 0.0087637443 
   64000    1.6208582 -0.0063889418    2.2330871    4.6550384 0.0034973094 
   64200    1.5790917 -0.0094724136    2.2993993    4.6556934 -0.0014433759 
   64400    1.6871048 -0.010238851    2.1375917    4.6549426 0.0026015909 
   64600    1.6598457 -0.0074006503    2.1763898    4.6557398 0.0023615583 
   64800    1.6091345 -0.0054491294    2.2502324    4.6555594 -0.0013692712 
   65000    1.6097296 -0.0047604852    2.2495308    4.6564379 -0.0010915662 
   65200    1.6460343 -0.0048483204    2.1946495    4.6558598 -0.0030802207 
   65400    1.5922772 -0.0035301495    2.2747084    4.6566989 0.00047721536 
   65600    1.6341807 -0.0062273673    2.2146681    4.6567406 0.0021402034 
   65800    1.6261692 -0.0067726634    2.2269571    4.6564816 0.0034367345 
   66000    1.6602322 -0.0055811256    2.1748627    4.6566113 -0.0012048196 
   66200     1.662231 -0.0046715327    2.1713446    4.6569973 0.0033940886 
   66400    1.6171728 -0.0036284263    2.2382309    4.6574214 0.00083793976 
   66600    1.6416521 -0.0036880711    2.2011725    4.6569777 0.0027516034 
   66800    1.6187527 -0.0046010518    2.2370814    4.6576662 -0.00064000351 
   67000    1.6781905 -0.0038381385    2.1472907    4.6576871 0.0011939329 
   67200    1.6037967 -0.0047602021    2.2600592     4.658078 -0.0024282492 
   67400    1.5557411 -0.0070350122    2.3342786    4.6580267 0.00030802315 
   67600    1.5993338 -0.0065759941    2.2683504    4.6578673 0.0032163336 
   67800    1.6864661 -0.0079584619    2.1382195    4.6568939 0.0015331656 
   68000    1.6203518 -0.0086922394     2.239088    4.6579773 0.00085002984 
   68200    1.6105115  -0.00673597     2.251628    4.6577311 -0.00056789483 
   68400     1.626429 -0.0036613629      2.22469    4.6577149 0.0019764506 
   68600    1.6283269 -0.0033527165    2.2218966    4.6580736 0.0012689232 
   68800    1.6900276 -0.0045892077    2.1303918    4.6577712 0.0017729838 
   69000    1.5990672 -0.010017435    2.2720951     4.657771 0.0014103054 
   69200    1.6723483 -0.0091739948    2.1614245    4.6577323 0.0038624804 
   69400    1.5739929 -0.004364174    2.3045796    4.6583429 -0.0030957519 
   69600    1.6160828 -0.0052444347    2.2421783    4.6581197  0.002306483 
   69800    1.6275382 -0.0037248944    2.2234838    4.6581071 -0.0040826005 
   70000    1.6539741 -0.0046603022    2.1851159    4.6584095 -0.0017620473 
   70200    1.6219296 -0.0040698537    2.2324976    4.6583733 -0.0076091923 
   70400    1.5950209 -0.0056156702    2.2747892    4.6588048 -0.0013789595 
   70600     1.605889 -0.0060177384    2.2592503    4.6591463 -0.0013688735 
   70800    1.6921502 -0.0042974961    2.1272963    4.6581475 0.0013618072 
   71000    1.6297469 -0.0056218273    2.2231383    4.6591736 0.0016609246 
   71200    1.6688549 -0.0075757337    2.1663566    4.6590289 0.0028444161 
   71400    1.6502279 -0.0050943346    2.1920408    4.6592879 0.0015939242 
   71600    1.6605455 -0.0022258357    2.1739897    4.6595629 9.374092e-05 
   71800    1.6573346 -0.0026244345     2.179675    4.6600391 -5.2431126e-05 
   72000    1.6457147 -0.0053854957    2.1996667    4.6598611 -3.1251438e-05 
   72200    1.6117247 -0.0073631628    2.2524062    4.6596997 -0.0024934541 
   72400    1.5916858 -0.0070735701    2.2832027    4.6607638 -0.00014135431 
   72600    1.6550045 -0.0082134036    2.1882158       4.6595 0.0010839848 
   72800    1.6257621 -0.0063310567    2.2309584    4.6603146 -0.00018412825 
   73000     1.650166 -0.0048357628     2.192998    4.6604109 -0.00080685905 
   73200    1.6699361 -0.0051533925    2.1639157    4.6606303 0.0021188093 
   73400    1.6071729 -0.0031202959    2.2558657    4.6605825 -0.00096380985 
   73600    1.6728118 -0.0027780946    2.1578468     4.661245 0.0024945722 
   73800    1.6125761 -0.0079441659    2.2526299    4.6606179 -0.0038884775 
   74000    1.6582945 -0.0056856987    2.1824333    4.6611743 0.0040360873 
   74200    1.6373304 -0.0048172951    2.2126296    4.6608308 -0.0011136178 
   74400    1.6318339 -0.0035009939    2.2199368    4.6612197 0.00020038873 
   74600    1.6149204 -0.0022410334    2.2440684    4.6612718 -0.0017251738 
   74800     1.620637 -0.0064206788    2.2398834    4.6614716 -0.00054711636 
   75000    1.6174318 -0.0078043191    2.2462206    4.6616232 0.0054349521 
   75200    1.6339562 -0.0050217541    2.2184073     4.661349 0.0015197688 
   75400    1.6133332 -0.0061088574    2.2509652    4.6619228 -0.0042499174 
   75600    1.5928512 -0.0053238424    2.2809689    4.6620257 0.00065116981 
   75800    1.6757534 -0.0061398537     2.156752    4.6611955 0.0053252451 
   76000    1.5827484 -0.0027563441    2.2929848    4.6614734 -0.0034837105 
   76200    1.6787864 -0.005675276    2.1517744    4.6612263 -0.0051571687 
   76400    1.5907606 -0.0023871883    2.2809793    4.6618408 0.0017582526 
   76600    1.6171962 -0.0027279577     2.241833    4.6619589 0.00078376054 
   76800    1.6151561 -0.0047514534    2.2469762    4.6620223 -0.0049934321 
   77000    1.5960824 -0.0071144949    2.2776741    4.6617812 0.0042424959 
   77200    1.6423291 -0.0069818695    2.2082806    4.6618063 0.0010768468 
   77400    1.6312562 -0.0032443144    2.2215811    4.6622551 -0.00024238514 
   77600    1.5816192 -0.0041328619    2.2967921    4.6622123 0.0053058996 
   77800    1.6684261 -0.0034495162    2.1658409     4.661997  0.001044811 
   78000      1.63754 -0.0036444725    2.2125814    4.6622695 -0.0020463518 
   78200    1.6429842 -0.0057241854    2.2067624    4.6625273  0.004336276 
   78400    1.5746806 -0.0081733861    2.3119484    4.6629329 -9.3627752e-05 
   78600    1.6433756 -0.0068998059    2.2076451    4.6628207 0.0031259293 
   78800    1.6862043 -0.0032834319    2.1411826    4.6641397 0.0010050472 
   79000    1.6067221 -0.010970284    2.2681447    4.6643362 -0.00072054939 
   79200    1.6641139 -0.0032504542    2.1742332    4.6641279 0.0012945957 
   79400    1.6487163 -0.0086422045     2.203186    4.6646206 0.0035811913 
   79600    1.6673542 -0.0064035132    2.1726674    4.6642636 -0.00049813533 
   79800    1.6132891 -0.0049848477     2.253359    4.6653745 0.0011106992 
   80000    1.6433931 -0.0090356628    2.2111261     4.664192 0.0059858281 
   80200    1.6546515 -0.0062190722    2.1921524    4.6649021 0.0012946301 
   80400     1.610001 -0.0078916067    2.2613115    4.6654941 -0.00036561078 
   80600    1.6325444 -0.0089457997    2.2280688    4.6649714 0.0018612989 
   80800    1.6604633 -0.009061799    2.1860299     4.664644 0.0020513297 
   81000      1.63405 -0.0061111289    2.2231646    4.6651574 0.0020397753 
   81200    1.6511709 -0.0062353994    2.1974984    4.6650172 0.0021713103 
   81400    1.6338915 -0.0051043911     2.222745    4.6655072 -0.0016314708 
   81600    1.6578436 -0.0044671611    2.1864157    4.6656997 0.0073864873 
   81800    1.5861067 -0.0047280937    2.2946393    4.6661874 -0.0015102085 
   82000    1.6408634 -0.0049019893    2.2134867    4.6668964 -0.0048649558 
   82200    1.6719903 -0.0030501882    2.1654372    4.6673325 0.0056888519 
   82400    1.6306228 -0.0030034604    2.2275295    4.6674955 0.0066790545 
   82600    1.6236248 -0.0031410087    2.2385186    4.6678627 0.00098447147 
   82800    1.6516502 -0.0040828966    2.1977025    4.6680919 -0.003589075 
   83000    1.6501457 -0.0038359668    2.2002555    4.6686379 -0.0038247698 
   83200    1.6759147 -0.0072991398      2.16505    4.6685758 0.0017158828 
   83400    1.6437641 -0.0058209503    2.2119366    4.6687732 0.0016806562 
   83600     1.661378 -0.0075814293    2.1874547    4.6689196 0.0010347652 
   83800    1.6743188 -0.0038530987     2.164563    4.6691439 0.0032388106 
   84000    1.5961772 -0.0033052837    2.2814371    4.6694955 -0.0048687882 
   84200    1.5504975 -0.0035613314    2.3505447    4.6699106 -0.00093679391 
   84400    1.5960292 -0.0028908658    2.2816059     4.669857 0.0057905603 
   84600    1.6454485 -0.0036299658    2.2076339     4.669185  0.001078759 
   84800    1.6671237 -0.0016670584    2.1732279    4.6692152 -0.0012099782 
   85000     1.664139 -0.0034525999    2.1794006    4.6691308 0.00026309541 
   85200    1.6220347 -0.0021584801    2.2419249    4.6698693 -0.0021001324 
   85400    1.6739005 -0.0046782482    2.1662696    4.6693987 0.0019594395 
   85600    1.6759414 -0.0050429528    2.1640613    4.6698833 0.0096368409 
   85800    1.6104373 -0.0044050656    2.2624263     4.670749 0.00047871068 
   86000    1.6274013 -0.0058247342    2.2380007     4.670319 -0.0060077058 
   86200    1.6487855 -0.0039473332    2.2042377    4.6704709  0.002176982 
   86400    1.6320681 -0.0051933375    2.2313057    4.6712471 -0.00049069036 
   86600    1.6389381 -0.0049561291    2.2207035    4.6711747  0.006179097 
   86800    1.6673585 -0.0084776835    2.1819213    4.6714498 0.0029392733 
   87000    1.5960906 -0.0053088158    2.2860025    4.6719276 -0.0053341514 
   87200     1.634118 -0.0041995134    2.2284878    4.6724941  0.004463258 
   87400    1.6214873 -0.0054903613    2.2484599    4.6722523 -0.0007928491 
   87600    1.7191053 -0.005751378    2.1021234    4.6719044 0.0030009829 
   87800    1.6430542 -0.0059215403    2.2171734    4.6728458 0.0044320079 
   88000    1.6260189 -0.0046376359    2.2421649    4.6735993 -0.0033559153 
   88200    1.6075484 -0.0061896426    2.2718039    4.6740141 -0.00061748722 
   88400    1.6296904 -0.0097523244     2.241959    4.6737792 0.0018365517 
   88600     1.603977 -0.0079467004    2.2804137    4.6755162 0.0020907803 
   88800    1.6484985 -0.0070930816    2.2126035    4.6752609 -0.0035451928 
   89000    1.6566589 -0.0090537657    2.2025453    4.6754679   0.00167323 
   89200    1.5705252 -0.010380612     2.333486    4.6760377 0.00057039425 
   89400    1.6451392 -0.0075964745    2.2196017    4.6767229 -0.00023165186 
   89600    1.6411264 -0.005692052    2.2238935    4.6769072   0.00139194 
   89800    1.6507528 -0.0070237448    2.2109778     4.677082 0.00074454195 
   90000    1.6441942 -0.0037795207     2.218366    4.6778883 0.0027993306 
   90200    1.6072824 -0.0044402135    2.2740773    4.6776384 -0.0028125104 
   90400    1.6894966 -0.0039392051    2.1510994    4.6783333 0.0045849391 
   90600     1.639537 -0.0059541988    2.2281828    4.6785531 -0.003461037 
   90800    1.6078289 -0.0054402424    2.2755523     4.678932 -0.0030946459 
   91000    1.6562839 -0.005886025     2.203009    4.6785374  0.001639326 
   91200    1.6231231 -0.0064617964     2.253721    4.6789928 -0.0030811143 
   91400    1.6149091 -0.0078700866    2.2670594    4.6786168 -0.0021305397 
   91600    1.6134277 -0.0039403638    2.2671673     4.680435 -0.0035002166 
   91800    1.6633564 0.0080581737    2.1808477    4.6809161 -0.00028774235 
   92000    1.6544394 -0.0030401627    2.2044383    4.6800492 -0.0038447667 
   92200    1.6124984 -0.0044319323    2.2689386    4.6803224 0.0034392457 
   92400    1.6898395 -0.0065173811    2.1546165    4.6797859 0.0073108338 
   92600     1.674681 -0.0058842851    2.1771134    4.6802057 0.0018594229 
   92800     1.618902 -0.0092427907    2.2640908    4.6802575 -0.0014115965 
   93000    1.6664051 -0.0064295485    2.1904051    4.6805534 0.0040040103 
   93200     1.649337 -0.0050001065    2.2155564     4.681563 -0.00076996153 
   93400    1.6077068 -0.0097682966    2.2824492     4.681318 -0.0060529852 
   93600    1.6004156 -0.0050129369    2.2895453    4.6822459 0.0040013028 
   93800    1.6026213 -0.010632946    2.2919081    4.6822933 -0.0027333285 
   94000    1.6965501 -0.0076257873    2.1472283    4.6813431 -0.0010237967 
   94200    1.6007191 -0.0010010268    2.2854452    4.6826124 -0.0027887543 
   94400    1.6791446 -0.0053364451    2.1715342    4.6818616 0.0066338994 
   94600    1.6003471 -0.0063542788    2.2914253    4.6826819 -0.0019702667 
   94800    1.6738881 -0.0068438773    2.1811959    4.6821407 0.0044247413 
   95000     1.710228 -0.0075781305    2.1275199    4.6821742 0.00032392925 
   95200    1.6598915 -0.0061569707    2.2023873    4.6830497 0.0029284288 
   95400    1.6251185 -0.0070346291    2.2550588    4.6827472 -0.0022987524 
   95600    1.6555487 -0.00098733532    2.2039382    4.6832639 -0.00097010644 
   95800    1.6333141 -0.005514371    2.2414731    4.6829602 -0.0050815643 
   96000    1.6379996 -0.010116535    2.2395272    4.6834318 0.0018951277 
   96200    1.6481001 -0.007903549    2.2224949    4.6837449 0.00052391304 
   96400    1.6480142 -0.0063469143    2.2216406    4.6843186 0.00012189055 
   96600    1.6089875 -0.0043534654    2.2782275    4.6844299 -0.0052295287 
   96800    1.6802939 -0.0061754394    2.1744564    4.6856668 0.0090771054 
   97000    1.6217479 -0.0066671537    2.2616241    4.6846302 -0.0023345146 
   97200    1.6140141 -0.0058632228    2.2727584    4.6849818 -0.00097665357 
   97400    1.5628286 -0.0057414664    2.3493044    4.6849643 0.00054196641 
   97600    1.6141113 -0.0086617839    2.2759198    4.6854902 -0.0014392816 
   97800    1.6577983 -0.0055060881     2.206674    4.6848512 -0.0032445702 
   98000    1.6018659 -0.0053263786    2.2907909    4.6853509 0.00027742078 
   98200    1.6303703 -0.0062678086    2.2496987    4.6860219 0.00064628339 
   98400    1.6324809 -0.0069879905    2.2467975    4.6855628 -0.0021223724 
   98600    1.6615179 -0.0056658333    2.2025381    4.6861282 0.0014967035 
   98800    1.6225212 -0.0015549516    2.2577927    4.6870695 0.0021476811 
   99000     1.650126 -0.0042893474    2.2192248    4.6871243 -0.0036690274 
   99200    1.6404218 -0.0019235571    2.2315116    4.6872383 0.0020854797 
   99400    1.6638485 -0.005055682    2.1994684    4.6871602 0.00073820657 
   99600    1.6579977 -0.0074932685    2.2118888    4.6883776 -0.001790341 
   99800     1.694239 -0.0057218682    2.1553529    4.6879091 -0.0015982188 
  100000    1.6336679 -0.0032533223      2.24453    4.6888082 0.0026432361 
  100200    1.6289764 -0.0053411681    2.2537384    4.6889001 -0.0041869587 
  100400    1.6746846 -0.0057496924    2.1859593    4.6891916 -0.00014264676 
  100600    1.6173446 -0.0045456367    2.2712517    4.6897823 0.00070213975 
  100800    1.6292729 -0.0068999613     2.255251     4.689298 -0.00097542277 
  101000    1.6209146 -0.0079624828    2.2693992    4.6898615 -0.0043307669 
  101200    1.5687015 -0.0062130735    2.3462334    4.6902204 0.0033842985 
  101400    1.6435766 -0.0057899803    2.2333769    4.6899635 0.0033134269 
  101600    1.6196811 -0.0055027381    2.2683555    4.6894295 0.00072739175 
  101800     1.635738 -0.0050733054    2.2436197    4.6891793 -0.0014035188 
  102000    1.6476221 -0.0071585285     2.228547    4.6898259 0.0029996639 
  102200    1.6107348 -0.0041063461    2.2809399    4.6900071 -0.0016009249 
  102400    1.6599907 -0.0053420096    2.2079833    4.6896092 0.0013708958 
  102600    1.6905996 -0.0062712174    2.1628384    4.6893928 0.0010796493 
  102800    1.6318098 -0.0094672317    2.2550953    4.6903759   0.00947505 
  103000    1.6390238 -0.0074994727    2.2440641    4.6921203 -0.0054917973 
  103200    1.6558593 -0.010070235    2.2218175    4.6925256 0.0020785348 
  103400    1.6002772 -0.011070478    2.3066437    4.6930794 -0.00048387088 
  103600    1.5976853 -0.010323086    2.3088527    4.6921527 0.00018234842 
  103800    1.6388322 -0.0091021295    2.2461643    4.6923308 0.0044803258 
  104000    1.6666168 -0.0049333754    2.2002948    4.6922564 -0.0035710581 
  104200    1.6542901 -0.0096471726    2.2238112    4.6925914 -0.003821436 
  104400    1.6639103 -0.010282799    2.2105298    4.6930872 0.0071106393 
  104600    1.6594349 -0.010862361    2.2175019    4.6927748 0.0023691173 
  104800    1.6514253 -0.0086623741    2.2273248    4.6927977 -0.00074445234 
  105000     1.632474 -0.0059116997    2.2532472    4.6930784 -2.8782269e-05 
  105200     1.665849 -0.0040945052    2.2016276    4.6932777 0.0047382821 
  105400    1.6492196 -0.0047923919    2.2271698    4.6932082 7.3776327e-05 
  105600     1.705227 -0.0045045552    2.1428611    4.6930967 -0.0012355125 
  105800     1.626032 -0.0032200791    2.2606786    4.6935501 0.0011688021 
  106000    1.6019888 -0.0042845919    2.2971591     4.692945 0.0016199317 
  106200    1.6155919 -0.0074508385    2.2797189    4.6927185 -0.00080667513 
  106400    1.6232082 -0.0074020146    2.2689544    4.6934134 0.0032119758 
  106600    1.6567146 -0.0061156656    2.2175789    4.6935229   0.00234618 
  106800    1.6476788 -0.0042028372    2.2294362    4.6937558 0.0061625999 
  107000    1.6591248 -0.0053647142    2.2135481    4.6938541 -0.0005246857 
  107200    1.6711897 -0.0082512704    2.1981799    4.6936746 0.00063162034 
  107400     1.672533 -0.011076746    2.1987828    4.6934646 0.0041470994 
  107600    1.6263728 -0.0091950468    2.2664352    4.6938423 -0.00059840277 
  107800     1.613835 -0.0073847048    2.2837479    4.6941814 0.0050294654 
  108000    1.6485394 -0.0052519797     2.229649    4.6942088 -0.00060830313 
  108200    1.6927426 -0.0042429271    2.1623681    4.6941613 7.2831297e-05 
  108400    1.6107117 -0.0058870619    2.2875094    4.6947613 -0.0010788076 
  108600    1.6638493 -0.0055234472    2.2078337     4.695059 0.0045458614 
  108800    1.7064352 -0.0087773447    2.1474833    4.6952562 0.0020018803 
  109000    1.6913453 -0.0082264393    2.1699304    4.6956468 0.0038943647 
  109200    1.6361376 -0.0083018574    2.2531538    4.6960835 -0.0057250874 
  109400    1.6362856 -0.010798473    2.2549641     4.695619 0.0011429838 
  109600    1.6721501 -0.009264343    2.1997042    4.6956248 0.0014153493 
  109800    1.6620654 -0.0041917863    2.2106822    4.6965666 0.00029210016 
  110000    1.6566453 -0.0064026581    2.2205089    4.6960621 0.0027824356 
  110200    1.6045866 -0.0056693144    2.2979001    4.6961933 0.0015515127 
  110400    1.6068214 -0.0031511529    2.2922919    4.6964513 -0.00014381863 
  110600    1.6506138 -0.0056575905    2.2288912    4.6961532 -0.0016598816 
  110800    1.6512746 -0.0031434692    2.2256628    4.6964289 -0.0012754136 
  111000     1.607404 -0.0046471894    2.2931939    4.6967301 -0.0021286111 
  111200    1.6390213 -0.0034576961     2.244484    4.6965782 0.0030942854 
  111400    1.6571473 -0.0026733337    2.2169133    4.6969479 0.0028229898 
  111600     1.640134 -0.0039381833    2.2438311    4.6971117 -0.0070818258 
  111800    1.6667798 -0.0046969716    2.2047199    4.6971621 0.0028293635 
  112000     1.634617 -0.0028522574      2.25138    4.6974813 0.0039910255 
  112200    1.6949875  -0.00576841    2.1639216    4.6975527 -0.0041292074 
  112400    1.6520171 -0.0026133498    2.2255199    4.6979286 -0.001145937 
  112600    1.6562873 -0.0058065148    2.2221432    4.6977562 0.0044178227 
  112800      1.58623 -0.0050868914    2.3271714    4.6985454 -0.0020299067 
  113000    1.6576114 -0.0065973862    2.2213325    4.6981384 0.0093738852 
  113200    1.6364223 -0.0046752241    2.2513165    4.6982994 -0.0026776409 
  113400    1.6083296 -0.0033459439    2.2926749    4.6988991 -0.00065630053 
  113600    1.6208667 -0.0024926998    2.2731436    4.6990038 0.0021632226 
  113800    1.6220964 -0.0044029756    2.2732722    4.6990646 -8.3971015e-06 
  114000    1.6627377 0.0024007165    2.2056766    4.6991607 -0.0035011208 
  114200    1.6381445 -0.00067788241    2.2463953    4.6999556 -0.0008645101 
  114400     1.683155 -0.0029040585    2.1806332    4.6994013 0.00072679727 
  114600    1.6063467 -0.0063389929    2.2996561    4.6999165 -0.0013466777 
  114800    1.5916917 -0.0072761953    2.3228568    4.7002242 -0.00048359738 
  115000    1.6604698 -0.0071208584    2.2194147    4.6999796 -0.00029736634 
  115200    1.6704527 -0.0089686719    2.2072256    4.7008988 0.0007996155 
  115400    1.6478876 -0.0078360768    2.2401612    4.7011603 -0.0029429022 
  115600    1.6561585 -0.0057812615    2.2255984    4.7010437 0.00079517062 
  115800    1.6132442 -0.0024304886    2.2883045    4.7028072 0.0062104392 
  116000    1.6950455 -0.007260498    2.1690248    4.7012507 -3.1516271e-05 
  116200    1.6436628 -0.0090784003    2.2493729    4.7028003 -0.0028879415 
  116400     1.600746 -0.0066855499    2.3108525    4.7023755 0.0016103501 
  116600     1.640458 -0.0097114966    2.2540511    4.7020439 0.0054552111 
  116800    1.7007326 -0.0071276937    2.1610896    4.7019686 0.0052854388 
  117000    1.6478713 -0.005205505    2.2387045    4.7023098 -0.00066293686 
  117200    1.6480568 -0.0029526405    2.2362794    4.7024154 0.0081405105 
  117400    1.6638614 -0.0042337227    2.2142726    4.7028057 -0.0013207232 
  117600    1.7214168 -0.004253624    2.1281516    4.7028932 0.0069576096 
  117800    1.6851736 -0.0038239572    2.1821223    4.7029948 0.0031441494 
  118000    1.6770447 -0.0035074544    2.1939424    4.7029529 -0.00033751539 
  118200    1.5898996 -0.0038871329    2.3257785      4.70385 0.00078820539 
  118400     1.651148 -0.0042822164     2.234519    4.7039567 0.0066123167 
  118600    1.6534549 -0.0048188461     2.231433    4.7037902 -0.0020022784 
  118800    1.6945837 -0.0057177027    2.1710101    4.7040869 0.0002940154 
  119000    1.6514588 -0.0054948902    2.2359693    4.7046599 0.00059074094 
  119200    1.6835027 -0.0081884386    2.1912299    4.7052345 9.4153927e-05 
  119400    1.6165815 -0.0075406975    2.2911707    4.7055631 9.0055478e-05 
  119600    1.6753087 -0.0053527881    2.2005108     4.705075 0.0057675016 
  119800    1.6332941 -0.0029077861    2.2613631    4.7054269 -0.0023222745 
  120000    1.6012185 -0.0022153272     2.308949    4.7056502 -0.0033660569 
  120200    1.6837242 -0.0027413604    2.1854311    4.7052146 -0.00064030862 
  120400    1.6201697 -0.0037052972    2.2823035     4.705907 0.0015384246 
  120600    1.6394329 -0.0049397503    2.2545428    4.7057717 -9.4190107e-05 
  120800    1.6871936 -0.0022030494    2.1807976    4.7063172 -0.00058285772 
  121000    1.6728548 -0.004313455    2.2041741    4.7061013  0.003102472 
  121200    1.6119773 -0.0081288222    2.2995544    4.7064607 0.00017192632 
  121400    1.6128179 -0.0076002299    2.2975562    4.7062504 -0.0011168009 
  121600    1.6955112 -0.0055368527    2.1713826    4.7060298 0.0060636756 
  121800    1.6154606 -0.0064511725    2.2935773    4.7073798 -0.0046953026 
  122000    1.6169338 -0.0087333481    2.2928291    4.7065566 -0.001982892 
  122200    1.6547159 -0.004807487     2.232557    4.7068148 0.0010858974 
  122400    1.6515274 -0.0014738048    2.2350219    4.7078365 0.00038728235 
  122600    1.6162288 -0.0023310209    2.2882242    4.7072978 -0.00044113778 
  122800    1.6627346 -0.0068703476    2.2228956     4.707104  0.006360426 
  123000    1.7065042 -0.0055148319    2.1570011    4.7081398 0.0011571098 
  123200     1.627014 -0.0052881014    2.2757817    4.7080564 -0.0031767291 
  123400    1.6696785 -0.006443972    2.2132345    4.7082724 0.0043486934 
  123600    1.6632659 -0.0058051086    2.2234973    4.7095669 -0.0013773356 
  123800    1.6988233 -0.0062793767    2.1691467    4.7080135 -0.0014459556 
  124000    1.6408089 -0.006639422    2.2582179    4.7098085 0.0056279299 
  124200    1.6149634 -0.0044759729    2.2956964    4.7107292 -0.0036091436 
  124400    1.6805899 -0.0064208505    2.1985658    4.7099742 0.0052098733 
  124600    1.6579887 -0.0040615978    2.2307286    4.7106354 0.00081897732 
  124800    1.6858029 -0.0037490904    2.1887271    4.7106172 0.00010429989 
  125000    1.6808866 -0.0038285786    2.1971024    4.7115476 -0.001057004 
  125200    1.6099305 -0.0037981192    2.3038042    4.7119748 -0.00040685196 
  125400    1.6086709 -0.0065252144    2.3086977     4.712254 0.0038222738 
  125600    1.5924991  -0.01206907    2.3384294    4.7122135 -0.0012821603 
  125800    1.7014014 -0.010324745    2.1746803    4.7133642 0.00019042122 
  126000    1.6436633 -0.012361288    2.2638006    4.7139457 -0.00085314139 
  126200    1.6660344 -0.0084159761    2.2272473    4.7148538 0.0060843259 
  126400    1.6287107 -0.0076718839    2.2827317    4.7151646 -0.0029601975 
  126600    1.6382869 -0.0077570707    2.2687624    4.7154569 -0.0051950466 
  126800    1.6805442 -0.0088074467     2.206398    4.7153513 0.0034853692 
  127000    1.6936382 -0.0090333447    2.1874182    4.7157628 -0.0018312879 
  127200    1.6381758 -0.0073165625    2.2693205    4.7162892 0.00079028756 
  127400    1.6098856 -0.0048018617    2.3095024    4.7166018 0.0025078796 
  127600    1.6885135 -0.0070000229    2.1938505    4.7165506 0.0016403053 
  127800    1.6349143 -0.0048451246    2.2727565    4.7173102 -1.4491836e-05 
  128000    1.6811212 -0.0046074268    2.2034502    4.7174681 0.0044370232 
  128200    1.6407272 -0.005996639    2.2644009    4.7165119 -0.0039106769 
  128400     1.682382 -0.0061228797    2.2026643    4.7170556 -0.002348904 
  128600    1.6473515 -0.0078048585    2.2572209    4.7174481 0.0011559939 
  128800    1.6620142 -0.0083989526     2.236299    4.7178994 0.0067081322 
  129000    1.6307035 -0.011182171    2.2857052    4.7176133 -0.00088902623 
  129200     1.642323 -0.011175946    2.2687793    4.7181018  0.003525774 
  129400    1.6286213 -0.006505461    2.2845311    4.7179964 0.0055269835 
  129600    1.6891672 -0.0049677531    2.1925149    4.7182267 0.0036893838 
  129800     1.615545 -0.0025081587    2.3013819    4.7192539 -0.0020667766 
  130000    1.6269033 -0.0026368675    2.2846685    4.7194286 0.0011649479 
  130200    1.6883825 -0.0036892393     2.193912    4.7197268  0.005220965 
  130400     1.599896 -0.0022528339    2.3260558    4.7207381 0.0038593636 
  130600    1.6308289 -0.0049235866    2.2815915    4.7199461 -0.0040008782 
  130800    1.6534356 -0.0027160433    2.2455392    4.7199704 -0.002091553 
  131000    1.5946206 -0.0016604499    2.3333892    4.7207603 -9.87296e-05 
  131200     1.654652 -0.0044556817    2.2460703    4.7205841 0.0020873505 
  131400    1.7037315 -0.0045894298    2.1725742    4.7204844 0.0055637371 
  131600    1.6906057 -0.0044238902    2.1920007    4.7204115 0.0012042407 
  131800    1.7349101 -0.0042556565    2.1256377    4.7205928 0.0030017452 
  132000    1.6518283 -0.0071542634    2.2533053    4.7208902 -0.0024444734 
  132200      1.63379 -0.0068023685    2.2805243    4.7214365 -0.0017342654 
  132400    1.6179828 -0.0035277216    2.3011203     4.721625 -0.0023762778 
  132600    1.5937457 -0.0034198425    2.3379363    4.7222373 0.0040517523 
  132800    1.6192379 -0.0055327978    2.3020824    4.7224624 -0.0026781834 
  133000    1.6846046 -0.0045202954    2.2032317    4.7225553 0.0060925213 
  133200    1.6367866 -0.0070077135    2.2781393    4.7233356 0.00084736554 
  133400    1.6277093 -0.0055090569    2.2900634    4.7231589 -0.0029489308 
  133600    1.6429978 -0.0032826361    2.2649313    4.7231581 0.0011207928 
  133800    1.6827782 -0.0046817812    2.2067494    4.7231753 0.0067242193 
  134000    1.7100906 -0.0068817477    2.1683907    4.7235356  -0.00449692 
  134200     1.665968 -0.0067367498    2.2344837      4.72367 -0.00046136064 
  134400    1.6627742 -0.0085363094    2.2420306    4.7246325 0.0040545552 
  134600    1.5770767 -0.0073970274    2.3702072    4.7255579 0.00087894265 
  134800    1.6828744 -0.007044155    2.2106887    4.7248964 0.0010970536 
  135000    1.7040281 -0.0074832936    2.1799467    4.7254074 -0.0058490276 
  135200    1.6543538 -0.0046905149    2.2516813    4.7255136 0.0017866061 
  135400    1.6135941 -0.0049768743    2.3142498    4.7267303 -0.00073928499 
  135600    1.6521371 -0.0049065736    2.2556595    4.7259546 -0.00053240388 
  135800    1.6536992 -0.0039438224    2.2529911    4.7265893 -0.0040009598 
  136000    1.6545395 -0.0044204921    2.2520943    4.7264749 -0.00070176831 
  136200    1.6132787 -0.0044391119    2.3152082    4.7277538 0.0015333758 
  136400    1.6110304 -0.0064160778    2.3200598    4.7272602 0.0061145554 
  136600    1.6621976 -0.0084393478    2.2440542    4.7258891 -0.0034776364 
  136800    1.6799352 -0.0094868351     2.218696    4.7260575 -0.0035798746 
  137000    1.6643032    -0.003711    2.2366024    4.7263202 0.0042904833 
  137200    1.6940192 -0.0048676389    2.1935785    4.7266596 -0.0030697472 
  137400    1.5984804 -0.0068911429    2.3392755    4.7271986 0.0012555138 
  137600    1.6625101 -0.0071356693    2.2437773    4.7273841 -0.0041810578 
  137800     1.652557 -0.001016493     2.253543    4.7283573 -0.0015593554 
  138000    1.6173458 -0.0072880337    2.3121101       4.7279 0.0030027999 
  138200    1.6303331 -0.0075336988    2.2922007    4.7272024 0.0021022073 
  138400    1.6362897 -0.0074530222    2.2831143    4.7271208 -0.0048242501 
  138600    1.6656824 -0.011966398    2.2441163     4.727645 0.0020986402 
  138800    1.7068116 -0.012847803    2.1834246    4.7276909 0.0049753766 
  139000    1.6619062 -0.011500765    2.2496012     4.727938 -0.0024344248 
  139200    1.7183303 -0.012672354    2.1663671    4.7280659 0.00083482098 
  139400    1.6330633 -0.0069562346    2.2888866     4.728556 0.0030118009 
  139600    1.6491043 -0.0089153117    2.2662651    4.7280078 0.0041988779 
  139800    1.6696772 -0.0075422891     2.234193    4.7281307 -0.0027624566 
  140000    1.6362689  -0.00629433    2.2831131    4.7282471 0.00016608009 
  140200    1.6765632 -0.0068969941    2.2229698    4.7278693 -0.00019983941 
  140400    1.6683283 -0.0060801757    2.2351888    4.7285677 0.0012626404 
  140600    1.6831516 -0.0071128362    2.2143641    4.7289184 0.0056705778 
  140800    1.6654238 -0.0068835416    2.2410518    4.7292759 0.0036399701 
  141000      1.64913 -0.0047562336    2.2630452    4.7289855 -0.0030219578 
  141200    1.6751005 -0.0072670247    2.2276016    4.7299397 0.00039849534 
  141400    1.6745189 0.0012816419    2.2203088    4.7303243 0.0012937548 
  141600     1.674685 -0.0048506434    2.2263466    4.7304786 0.00026110508 
  141800    1.6972349 -0.0059797637    2.1936603     4.730447 -0.002275411 
  142000    1.6936934 -0.0050433229    2.1983476     4.730765 0.0022277001 
  142200    1.6747488 -0.0071558369    2.2297738    4.7316961 0.0018331593 
  142400    1.6555137 -0.010375176    2.2620006    4.7318859 0.0035695499 
  142600     1.703783 -0.0065865616    2.1861053    4.7320954 0.0037093199 
  142800    1.6398447 -0.0039759817    2.2791579    4.7319674 -0.001340441 
  143000    1.6524229 -0.0018019725    2.2583311    4.7321591 0.0011173989 
  143200    1.6926794 -0.0033934813    2.1998873    4.7324353 0.0049519983 
  143400    1.6292332 -0.001996331    2.2941889    4.7330802 -0.0039367769 
  143600    1.6046375 -0.0036877835    2.3326409    4.7329919 0.0062833656 
  143800    1.6837843 -0.0048167724    2.2151139    4.7329122 0.0009478963 
  144000    1.6740452 -0.0064715047    2.2314402    4.7329928 0.0026858744 
  144200    1.6755908 -0.0056094402    2.2300831    4.7348134 0.0004557574 
  144400    1.6703516 -0.0073520633    2.2382996     4.733438 0.0050761742 
  144600    1.5943662 -0.0046638941    2.3509555     4.734942 -0.0036828088 
  144800    1.7254759 -0.0046279239    2.1526753     4.733124 0.0054633017 
  145000    1.7155566 -0.0066760011    2.1707577    4.7342974 -0.0013458857 
  145200    1.6549118 -0.006763629    2.2614508    4.7340459 0.0030967754 
  145400    1.6469875 -0.0079525703    2.2747304    4.7342645 -0.0042350134 
  145600    1.6323402 -0.0058016526    2.2947113    4.7344521 -0.0050497217 
  145800    1.6130579 -0.0047273905    2.3230574    4.7349841 -2.6317733e-05 
  146000    1.6529007 -0.0056649673    2.2642216    4.7349023 0.0031061659 
  146200    1.6478947 -0.0053988611    2.2714092    4.7348563  0.002823762 
  146400    1.6403564 -0.0065005686    2.2844216    4.7354732 0.0015749372 
  146600    1.6440887 -0.0075564953    2.2799047     4.735492 0.00012160112 
  146800    1.6414132 0.0033829247    2.2735679    4.7360862 -0.0025951232 
  147000    1.6553852 -0.005011146    2.2609095    4.7359663 -0.0022050973 
  147200    1.6707292 -0.0032947138    2.2365025    4.7362639 0.0010700007 
  147400    1.6368539 -0.0031825326    2.2870846    4.7362068 -0.0015867624 
  147600    1.6085562 -0.00071805478    2.3284817    4.7376733 -0.001193357 
  147800    1.6496141 -0.0050342944    2.2706661    4.7370537 0.00037058621 
  148000    1.6739392 -0.0059631816    2.2351465    4.7370486 0.00022082963 
  148200    1.7448242 -0.0065463048    2.1297197    4.7372373 0.0011269598 
  148400    1.6927327 -0.0043923636    2.2058763    4.7375053 -0.00036280397 
  148600    1.6211356 -0.0057337868    2.3150831    4.7381052 -0.00073662456 
  148800    1.6593726 -0.004232314    2.2556372    4.7374467 -0.0038231797 
  149000    1.6676965 -0.0041517611     2.243332    4.7376928  0.007471482 
  149200    1.6353292 -0.0087022251    2.2969906    4.7383089 0.0022973059 
  149400    1.6732124 -0.0065299657    2.2376395     4.737886 0.0035843125 
  149600    1.6806256 -0.0066305701     2.226581    4.7378332 -0.0015068656 
  149800    1.6330916 -0.0044877102    2.2962046     4.738385 -0.00090407658 
  150000     1.653042 -0.0049662033    2.2676669    4.7392581 -0.00073824057 
  150200    1.6886965 -0.0091267159    2.2180721    4.7389198 0.0014823956 
  150400    1.6472429 -0.0099647723    2.2814048    4.7393095 -0.0027751497 
  150600    1.6545834 -0.007697318    2.2685701    4.7397395 0.0043959496 
  150800    1.6609586 -0.0041068615    2.2549745    4.7392856 0.0005684272 
  151000    1.6379424 -0.0056342317      2.29123    4.7395313 0.0013770934 
  151200     1.648332 -0.0058138221     2.276125    4.7398121 0.0042543567 
  151400    1.6539331 -0.0062262751    2.2677264    4.7393926 0.0035072836 
  151600    1.6888552 -0.0069818834    2.2162207     4.739451 0.00086332314 
  151800     1.685812 -0.0063885726    2.2216731    4.7409375 0.0037851082 
  152000      1.68281 -0.0049139248    2.2249748    4.7412163 -0.0023950009 
  152200    1.7289411 -0.003411943    2.1546053    4.7414615 0.0014033924 
  152400    1.6454936 -0.0018986516    2.2780858    4.7414357 -0.0028395136 
  152600    1.6879157 -0.004678786    2.2172258    4.7413517 0.0066923958 
  152800     1.593297 -0.0096231176    2.3644312    4.7418566 0.0010562331 
  153000    1.6962184 -0.006564826    2.2071237    4.7418023 0.00075890093 
  153200     1.612005 -0.0086352831    2.3359034    4.7423448 -0.0011406096 
  153400    1.6315081 -0.0080701215    2.3064749    4.7427006 -0.0018777727 
  153600    1.6492481 -0.0054374148    2.2777519     4.743188 0.0016925012 
  153800     1.721028 -0.0040713335    2.1687159    4.7430574 0.0058766389 
  154000    1.6959686 -0.0043602387    2.2071709    4.7436801 -0.0040850415 
  154200    1.6466932 -0.002261494    2.2793341    4.7441184 -0.0022541538 
  154400    1.6444148 -0.0017855326    2.2833693    4.7452162 -0.001408514 
  154600    1.6789404 -0.0058626663    2.2343056     4.743801 0.0064640189 
  154800      1.65512 -0.005179529    2.2698195    4.7443107 -0.0016365932 
  155000    1.6284679 0.0006037985    2.3049871    4.7453319 0.0036555091 
  155200    1.6530621 -0.0048516322    2.2728334    4.7445694 -0.0025727799 
  155400    1.6721814 -0.0047739602    2.2441417    4.7445995 0.0029204828 
  155600    1.6958031 -0.0082361112    2.2123281    4.7447134 -0.0015531117 
  155800    1.6810948 -0.0049190776    2.2312293    4.7448959 0.00063210529 
  156000    1.6460849 -0.0025893355    2.2820716    4.7456168 -0.0041744044 
  156200    1.6845688 -0.0062824499    2.2281646    4.7456726 0.0012667696 
  156400    1.6634062 -0.0066062774    2.2604919    4.7459706 -0.00060118419 
  156600    1.6481374 -0.0066034823    2.2842818    4.7468878 0.0025705911 
  156800    1.6621293 -0.0058583742      2.26351    4.7478235 0.0033319087 
  157000    1.6128519 -0.005020454    2.3361789    4.7475039 0.00031995205 
  157200    1.7024442 -0.0060331623    2.2027734    4.7473113 0.0053026844 
  157400    1.7178728 -0.005829959    2.1793222     4.747178 -0.0014847414 
  157600     1.708207 -0.0045752898    2.1917772    4.7464065 0.0030320282 
  157800    1.6793811 -0.002503314    2.2341969    4.7477119 0.0036489097 
  158000    1.6547352 -0.0049760206    2.2743778     4.748496 0.00074073243 
  158200    1.6400268 -0.0046815257    2.2961418    4.7485185 -0.002754228 
  158400    1.6526507 -0.0039589484    2.2764938    4.7485061 0.0010114316 
  158600    1.6487774 -0.0027813825    2.2811728    4.7485597 0.00012844348 
  158800    1.6371323 -0.0045829338    2.3013114    4.7494503 0.0029388904 
  159000    1.6758365 -0.0063912777    2.2447377    4.7490542 -0.0058434312 
  159200    1.7046913 -0.0074951309    2.2023115    4.7487539 -0.0005858534 
  159400    1.6563993 -0.0073383225    2.2748834    4.7491323  0.006433363 
  159600    1.6046629 -0.0098772659    2.3558751    4.7500746 -9.4565345e-05 
  159800    1.6422133 -0.0073866084    2.2967175    4.7496649 -0.00054148366 
  160000    1.6514693 -0.0017198938    2.2767828    4.7492642 0.0028927161 
  160200    1.6592295 -0.0043729612    2.2683777    4.7498322 -0.0019845152 
  160400    1.6360908 -0.0042848661    2.3029304     4.749807 0.0065792472 
  160600    1.6971888 -0.0038622791     2.211684    4.7505192  0.001919409 
  160800    1.7056282  -0.00506728    2.2004808    4.7507548 0.0024433412 
  161000    1.6646042 -0.0041297262    2.2621143    4.7518644 0.0017753691 
  161200    1.7018196 -0.0048958101    2.2058423    4.7505816 0.0039100313 
  161400    1.6616578 -0.001586314    2.2643039    4.7521831 -0.0010588147 
  161600    1.6574289 -0.0024657241    2.2709398     4.751604 0.0030145958 
  161800    1.6866954 -0.0033794928    2.2282155    4.7518124 -0.00064550126 
  162000    1.6828113 -0.003717224    2.2341144    4.7515544 0.00033667675 
  162200    1.6785537 -0.0063370411    2.2440979    4.7525394 -0.00092034876 
  162400    1.6481245 -0.0075406697    2.2915724    4.7532219 0.0038604138 
  162600    1.6653676 -0.006935806    2.2655495    4.7536372 -0.0012304351 
  162800    1.6977792 -0.0049695521    2.2146665    4.7532789 -0.0025477847 
  163000    1.7229977 -0.002993405    2.1751387    4.7535091 0.0035861508 
  163200    1.7369088  -0.00748747    2.1590215    4.7537392 0.0011976704 
  163400     1.650264 -0.010118185    2.2920006     4.754278 -0.0021939889 
  163600    1.6735475 -0.009590724      2.25796    4.7556477 0.0019022945 
  163800    1.6633603 -0.0072375282    2.2710727    4.7558513 0.0002956434 
  164000    1.6446269 -0.0046708244    2.2966235    4.7559029 0.0004989911 
  164200    1.6073383 -0.0051471837    2.3542257    4.7571635 -0.0024165635 
  164400    1.6357242 -0.0066773738    2.3122363    4.7561712 -0.0019615106 
  164600    1.6293816 -0.0059556369    2.3216657      4.75682 0.0048809461 
  164800    1.7017975 -0.0069284135    2.2136882    4.7563619 -0.002372157 
  165000    1.6452621 -0.0062879236    2.2991078    4.7577217 0.0015806033 
  165200    1.6518804 -0.010197559    2.2929814     4.757601 -0.00074756783 
  165400    1.6415701 -0.0094394832     2.307927    4.7578579 0.00047251435 
  165600    1.6797274   -0.0068877    2.2482637     4.757913 0.0025323502 
  165800    1.6485042 -0.0047882025    2.2930972     4.758068 0.0037552596 
  166000    1.6223647 -0.0061892076    2.3345807    4.7589887 -0.0058214749 
  166200    1.6858241 -0.0033885407    2.2371477    4.7594303 0.0029954419 
  166400    1.6719788 -0.0066285119    2.2613148    4.7596145 0.00022920442 
  166600    1.6415137  -0.00816761    2.3086797     4.759798 0.0021558454 
  166800    1.6840324 -0.0048227252    2.2417844    4.7599484 0.0022666047 
  167000    1.6812685 -0.0028861463    2.2439373     4.759897 -0.0011009226 
  167200    1.6543974 -0.005724231    2.2877513    4.7606151 -0.0011225733 
  167400     1.663437 -0.0050323791    2.2742231    4.7613218 -0.00010768618 
  167600    1.6907227 -0.0042825325    2.2321261    4.7608535 -0.0034541319 
  167800    1.6678536 -0.006264171    2.2689108    4.7613945 -0.0040653568 
  168000    1.6035739 -0.0078444721    2.3682243    4.7628251 -0.0015151068 
  168200    1.6473492 -0.0070701829    2.3025183    4.7634767 0.00042548677 
  168400    1.6585004 0.0012090953    2.2789317    4.7648759 0.0031547893 
  168600    1.6823523 -0.0047712338    2.2478261    4.7635246 -0.0023778131 
  168800    1.7069746 -0.0067046912    2.2124093    4.7630629 0.0042561487 
  169000    1.7325006 -0.005572729    2.1734407    4.7634689 0.0028162709 
  169200     1.682351 -0.0083731485    2.2515639    4.7636584 -0.0030719158 
  169400     1.624762 -0.0040723599    2.3342741    4.7643906 -0.0032596674 
  169600    1.6092429 -0.0054762552    2.3588639    4.7643262 0.0016366589 
  169800    1.6146516 -0.0074596041     2.352875    4.7644571 -0.0028812184 
  170000    1.6073877 -0.0068575058    2.3638435     4.765145 -0.0020878779 
  170200    1.6145714 -0.0091422671    2.3554889    4.7652682 -0.00050074579 
  170400    1.7249466 -0.0062103007    2.1868354    4.7649088 0.0080381597 
  170600    1.6551928 -0.006960886    2.2923373    4.7651561 -0.0025699739 
  170800    1.6582634 -0.0078770627     2.289047    4.7655501 -0.0044500026 
  171000    1.6606764 -0.0084857675    2.2863066     4.765816 0.0065876392 
  171200    1.6634224 -0.0086187907    2.2829272    4.7664176 0.0026503594 
  171400    1.5890027 -0.0079752931    2.3944139    4.7670535 0.00029878565 
  171600    1.6638781 -0.0071650247    2.2809743    4.7666013 -0.0015919234 
  171800    1.7144955 -0.0078300422    2.2056599    4.7664558 -0.0017927428 
  172000     1.649857 -0.0084296882    2.3035922    4.7669483 1.9033675e-05 
  172200    1.6713469 -0.0099557034    2.2732127    4.7672384 -0.0017609799 
  172400    1.7441723 -0.006238242    2.1605768    4.7674257 -0.0041529556 
  172600    1.7154882 -0.0087330306    2.2062746    4.7676548 0.0043690788 
  172800    1.6571447 -0.003221454    2.2894706    4.7689532 0.0021311827 
  173000    1.6108434 -0.0049096985    2.3597132    4.7681398 -0.0019115038 
  173200    1.6506782 -0.002725127     2.297743    4.7680339 0.0042280367 
  173400    1.6568239 -0.0019389424    2.2878899    4.7681744 -0.0021874022 
  173600    1.7035643 -0.0049961345    2.2208357    4.7680886 -0.001358342 
  173800    1.7198317 -0.0075746248    2.1993592    4.7684051  0.007382416 
  174000    1.6331631 -0.0040224194    2.3260124    4.7687653 -0.0011128697 
  174200    1.7015528 -0.0038564419    2.2235863    4.7689654 0.0030329053 
  174400    1.6366356 -0.0026656871    2.3199415    4.7692535 -0.0016075588 
  174600    1.6263102 -0.005782653    2.3399745    4.7707003 -0.0024487544 
  174800     1.732183 -0.006793829    2.1812484    4.7695797 0.0027163025 
  175000    1.6873885 -0.0062721713     2.248764    4.7705067 0.00075841979 
  175200    1.6811826 -0.010287559    2.2622658    4.7706955   0.00319082 
  175400    1.7125959 -0.011034862    2.2161569    4.7709021 -0.0023368899 
  175600    1.6504524 -0.0090510482    2.3074028    4.7710296 0.0022590072 
  175800    1.6381088 -0.0081057958    2.3254477    4.7715268 -0.0038709396 
  176000    1.6692224 -0.010899092    2.2816703    4.7715699 -0.0035975413 
  176200    1.7612369 -0.0089115558    2.1418662    4.7716076 0.0046910807 
  176400    1.6561116 -0.012041888    2.3025906     4.771705 0.0012733595 
  176600    1.6776242  -0.01115373      2.26985    4.7720823 -0.0025417537 
  176800    1.6359719 -0.0098528448    2.3319738    4.7731042 -0.00084818618 
  177000    1.7128772 -0.0073602937    2.2139475    4.7727886 -0.0011280588 
  177200     1.701413 -0.0064212615    2.2302379    4.7728427 0.00016504208 
  177400    1.6595247 -0.0074199208    2.2942931    4.7731429 -0.00099767549 
  177600    1.7178483 -0.0070194054    2.2064866    4.7731163 0.00024863849 
  177800     1.716313 -0.0055634709    2.2082216    4.7740071 0.0037874449 
  178000    1.6860783 -0.0097656206    2.2570902    4.7733764 0.0056734279 
  178200    1.6739444 -0.0055765694    2.2719244    4.7742209 0.00052888747 
  178400    1.6698996 -0.0098758398    2.2826762    4.7746136 0.0046313624 
  178600    1.6201006 -0.014118414    2.3619691    4.7750559 -0.0025124691 
  178800    1.7083632 -0.018789716    2.2329149    4.7735638 -0.0019754533 
  179000     1.587487 -0.016436525    2.4132906    4.7751983 0.0008415798 
  179200    1.7197573 -0.013599692    2.2115575     4.774467 0.0023471241 
  179400    1.6507669 -0.017309231    2.3196494    4.7754892 -0.00020935971 
  179600    1.6336079 -0.0013172598    2.3300659    4.7761903 -0.00039857228 
  179800    1.6934773 -0.0074003021    2.2450705    4.7748072 0.0014098214 
  180000    1.6488569 -0.0095763739    2.3151895    4.7759006 0.0057824205 
  180200    1.7117265 -0.0098795381    2.2211895    4.7757875 0.0027402261 
  180400    1.7020521 -0.005544771     2.231571    4.7760096 -0.00043152703 
  180600    1.6734958 -0.008163285    2.2773564     4.776394 0.00052271738 
  180800    1.7259324 -0.0094409258    2.1995822    4.7759017 0.0055985529 
  181000    1.7098069 -0.0096005129    2.2235731    4.7755743 0.0016294948 
  181200     1.624573 -0.0083342354    2.3502856     4.775857 -6.4324347e-05 
  181400    1.6578001 -0.0091306969    2.3019482    4.7765034 -0.0031602685 
  181600    1.7595696 -0.010670598    2.1506305    4.7761151 0.0010221305 
  181800    1.7298417 -0.0021170413    2.1873736     4.776874 0.0035214124 
  182000    1.6805406 -0.0070003007    2.2663869    4.7771419 0.0033759282 
  182200    1.5987079 -0.0098018684    2.3927129    4.7780661 -0.0048656686 
  182400    1.6957142 -0.0069196194    2.2440456    4.7776142 0.00032597866 
  182600    1.6955561 -0.0067601276    2.2444816    4.7779729 0.0031787608 
  182800     1.625851 -0.0068504246    2.3493534    4.7783234 0.0015590854 
  183000    1.6884663 -0.0037280606    2.2526744    4.7785758 -0.0021133971 
  183200    1.6591826 -0.0022496571    2.2953525    4.7788601 0.0019718659 
  183400    1.6775665 -0.0051373864    2.2711023    4.7792645 -0.0037705254 
  183600    1.6604003 -0.0053891478    2.2969629    4.7791552 -9.0955793e-05 
  183800    1.6928394 -0.004849209    2.2477553    4.7790873 0.0011829863 
  184000    1.6482319 -0.0075951548    2.3185696    4.7803255  0.006771658 
  184200    1.6840644 -0.012040793    2.2693644    4.7803583 -0.0032514702 
  184400    1.7066757 -0.0075006536    2.2312856    4.7806955 0.0028990081 
  184600    1.6513847 -0.011530265    2.3184558        4.781 6.6350204e-05 
  184800    1.6722497 -0.011150826    2.2870222    4.7812054 -0.0029206007 
  185000    1.6591416 -0.0098805105    2.3068349    4.7826502 -0.0014517546 
  185200    1.7075596  -0.01281696    2.2371202     4.782538 0.0047889596 
  185400    1.7053461 -0.013693405    2.2422358    4.7834609 0.00071684945 
  185600    1.7175917 -0.010163992    2.2198348    4.7829355 -1.4357168e-05 
  185800    1.6763304 -0.0056117324    2.2778548    4.7836908 0.0010645491 
  186000    1.6343741 -0.0090709673    2.3443507    4.7838693 -0.00085998569 
  186200    1.6840838 -0.0063633852     2.267111    4.7838114 0.0043179922 
  186400    1.6444926 -0.011423129    2.3315528    4.7838786 0.0013682028 
  186600    1.7220103 -0.0047441144    2.2084193    4.7835597 -0.00093476794 
  186800    1.6693167 -0.012513694    2.2959633    4.7843896 -0.0020313669 
  187000    1.7215294 -0.0076636076    2.2132386    4.7847391 0.0072520727 
  187200    1.6776242 -0.007050077    2.2791076    4.7854436 -0.00012343741 
  187400     1.693462 -0.0061432819    2.2548758    4.7858466 0.00032937792 
  187600    1.6579326 -0.007500281    2.3095564    4.7859405 -0.0023076964 
  187800    1.6606384 -0.0091161311    2.3070977    4.7859197 -0.00060054414 
  188000    1.7085837 -0.0074483299    2.2328576    4.7851783 0.0069867987 
  188200    1.6907361 -0.0034648754    2.2553512    4.7849163 0.0050064882 
  188400    1.6703954 -0.0061588975    2.2896623    4.7860594 -0.0049186567 
  188600    1.6560934 -0.0052977115    2.3115975    4.7874288 0.00038588829 
  188800    1.6304253 -0.0074684476    2.3524037    4.7876088 0.0010958989 
  189000    1.6130791 -0.007764532    2.3799223    4.7888436 -0.0007719761 
  189200    1.6757045 -0.0071655485    2.2847898    4.7881342 -0.0062155291 
  189400    1.6683236 -0.0048535019    2.2937039    4.7883025 0.00095512446 
  189600    1.6925343 -0.0081466945    2.2606843    4.7882617 0.0019707464 
  189800    1.6284198 -0.0059733511     2.355333    4.7890285  0.001297541 
  190000    1.7015693 -0.0083401801     2.247919     4.788839 0.00022762769 
  190200    1.6795213 -0.010809809    2.2842259    4.7896443 -0.00056080848 
  190400    1.7285357 -0.0088070247    2.2080003     4.788854 0.00023404437 
  190600    1.6520327 -0.010265173     2.325024    4.7898041 0.00073994319 
  190800     1.699876 -0.0062181759    2.2495514    4.7900565 0.0019960917 
  191000    1.6723625 -0.005889727    2.2909562    4.7905697 0.0039755743 
  191200    1.6402568 -0.0049855632    2.3388468    4.7912642 -0.0010216596 
  191400    1.6570967 -0.0054891635    2.3137412    4.7908842 -0.0028613592 
  191600    1.7214426 -0.001989249    2.2151652    4.7922099 0.0060468508 
  191800    1.6778581 -0.0061827124    2.2845948    4.7921486 0.00044211805 
  192000    1.6927492 -0.0051693646    2.2616441    4.7925207  0.003162492 
  192200    1.6802076 -0.0060379715    2.2812262    4.7924447 2.6865398e-05 
  192400    1.6780842 -0.0069481662    2.2857531    4.7928803 -0.0023808629 
  192600    1.7081341 -0.0027418799    2.2368121    4.7931657 0.0016723318 
  192800    1.6878107 -0.0032780061     2.268004    4.7933732  0.005682332 
  193000    1.6873095 -0.0073783266    2.2735417    4.7940598 -0.0027299067 
  193200    1.6737766 -0.0059055125    2.2922764    4.7939926 0.00032688211 
  193400    1.6649472 -0.0079961342    2.3085716    4.7949691 -0.00050799818 
  193600     1.698875 2.6570149e-05    2.2493526    4.7946028 0.00077151403 
  193800    1.7007514 -0.0087886858    2.2550622    4.7943083 -0.00059479816 
  194000    1.6656675 -0.0083263898    2.3084196    4.7955659 -0.0012935157 
  194200    1.6555587 -0.0046874488    2.3198157    4.7954562 -0.0012609031 
  194400     1.668285 -0.0058965721    2.3021916    4.7956892 -0.0046237121 
  194600    1.7378823 -0.0075034904     2.199051    4.7952111 0.00024169356 
  194800    1.6752751 -0.0092086965    2.2954318    4.7960897 0.0061427262 
  195000    1.6754127 -0.0072039827    2.2928948    4.7957636 -0.0032785273 
  195200    1.6768181 -0.0048483876    2.2888601    4.7961902 0.00092302903 
  195400    1.6642091 -0.0034248379    2.3067662    4.7966292 -0.0014016107 
  195600    1.7176111 -0.0044883532    2.2276205    4.7964258 -0.0027463014 
  195800    1.6533115 -0.0077610571    2.3277335    4.7969336 -0.0029916771 
  196000    1.7027285 -0.0086332154      2.25443    4.7967937  0.007305175 
  196200    1.6899285 -0.0043375944    2.2711413    4.7986239 -0.0016101168 
  196400    1.7514042 -0.011332991    2.1850445    4.7976334  0.005854215 
  196600    1.6924937 -0.0079862028    2.2707802    4.7984573 0.0018022048 
  196800    1.6788511 -0.0088385321    2.2925138    4.7988995 0.0022260157 
  197000    1.5903198 -0.0067823123    2.4233909    4.7991968 -0.0036091375 
  197200    1.7065239 -0.0074433491    2.2498676    4.7991073 0.0040346944 
  197400    1.6691343 -0.0095977029     2.308571    4.7996399 0.0010816594 
  197600     1.719662 -0.0097401585    2.2333608     4.799987 -0.00085174105 
  197800    1.7056742 -0.0097638778     2.254448    4.8000942 -0.0018026279 
  198000    1.7278325 -0.0047810548    2.2163133    4.8001395 0.0039305952 
  198200    1.7018876 -0.011504854    2.2622655    4.8004977 0.0024099551 
  198400    1.6877976 -0.0087144877    2.2813194    4.8012326 0.0016648406 
  198600    1.6233856 -0.010027763    2.3794555    4.8015545 -0.0031949781 
  198800    1.7186481 -0.008172499    2.2337569    4.8004317 0.0065429175 
  199000    1.7298161 -0.0054517484     2.214526    4.8006533 -0.0077506937 
  199200    1.6814004 -0.0036211289    2.2861811    4.8016035 0.0017708946 
  199400    1.6903877 -0.0063329456    2.2760026    4.8021778 0.0071259981 
  199600    1.6486069 -0.0018657516    2.3351313    4.8031784  0.001456988 
  199800    1.6685876 -0.010359071    2.3123934    4.8018819 -0.0012714921 
  200000      1.69463 -0.0059350834    2.2696944    4.8026232 0.00077541464 
  200200     1.681751 -0.0050556789    2.2884386    4.8029517 0.00029984729 
  200400    1.6998017 -0.0076573242    2.2643331    4.8032878 0.0024355366 
  200600    1.6836134 -0.0086744606    2.2894255      4.80311 0.0034615158 
  200800    1.6141285 -0.0099426981    2.3959749    4.8042903 -0.00044779383 
  201000    1.6463194 -0.0044398816    2.3427944    4.8048402 -0.0017048663 
  201200    1.7042719 -0.0062224146    2.2573363    4.8044231 0.00090091058 
  201400    1.7022001 -0.0053770202    2.2596836    4.8045119 -0.00067649113 
  201600    1.6919881 -0.0048339935    2.2753911    4.8054628 -0.0031013347 
  201800    1.6866563 -0.0026139185    2.2816387    4.8059427 -1.4263858e-05 
  202000    1.7190346 -0.0060378818    2.2359947    4.8053831 0.0019336674 
  202200    1.7930907 -0.0067595513    2.1254679    4.8050842 0.0035963692 
  202400    1.6957616 -0.0022435661    2.2678361    4.8061517 -0.00099234988 
  202600    1.6593916 -0.0068706918    2.3257613    4.8049609 0.00012478635 
  202800    1.6895834 -0.0058479162    2.2804397    4.8058949 -0.00093770807 
  203000    1.7609203 -0.0050700057    2.1728727    4.8059814 0.0074563478 
  203200    1.7037421 -0.001426009    2.2558752    4.8069646 -0.0016068703 
  203400    1.6941505 -0.003328215    2.2720513    4.8068685 -0.0051727836 
  203600     1.701423 -0.0011006279    2.2602621    4.8082025 0.0030818361 
  203800    1.6931118 -0.0057467721    2.2770152    4.8078578 0.00011276884 
  204000    1.6578639 -0.0039037549    2.3275496    4.8074274 -0.0052873659 
  204200    1.6786604 -0.0062224561    2.2988723    4.8075883 0.0021103921 
  204400    1.7090893 -0.0064076871    2.2541886    4.8083074 0.0056232728 
  204600    1.6919239 -0.006977323    2.2804562    4.8082885 0.00025355753 
  204800    1.6590215 -0.0074751429    2.3309774    4.8090181 0.0011314041 
  205000    1.6873106 -0.0080899095    2.2889121    4.8087203 0.0046866986 
  205200    1.6797741 -0.0066081362    2.2989045    4.8089034 -0.00072029339 
  205400    1.6775273 -0.0058689713    2.3024043    4.8097763 -0.0059575716 
  205600    1.6576718 -0.0048943788     2.331416    4.8100154 0.0039493199 
  205800    1.7146515 -0.0060847431    2.2472718    4.8100468 -0.00039298058 
  206000    1.6997668 -0.0041647119     2.267615    4.8100101 0.0044969483 
  206200    1.7086075 -0.0034170761    2.2531239    4.8095116  0.002868089 
  206400    1.7247664 -0.0037073009    2.2296974    4.8100038 0.0022548816 
  206600    1.6553762 -0.0032105219    2.3334474    4.8102915 -0.0033762548 
  206800    1.6528618 -0.0019060696    2.3377189    4.8121003 0.0086547338 
  207000    1.6597528 -0.0064606457    2.3318866    4.8120374 -0.0038730982 
  207200    1.7673325 -0.007156102    2.1707316    4.8113608 -0.002589963 
  207400    1.6777047 -0.0040739295    2.3025392     4.811972 0.00063229739 
  207600    1.6402907 -0.0049627458    2.3596558    4.8121467 -0.00088833252 
  207800      1.70698 -0.0056435042    2.2607535    4.8124765 0.0031902145 
  208000     1.696041 -0.0081122232    2.2796346    4.8125002 0.0048305966 
  208200     1.679797 -0.004860026     2.301737    4.8135183 0.0052944693 
  208400    1.6727646 -0.0064133181    2.3130443    4.8127365 0.0014457234 
  208600    1.6386081 -0.0053889877    2.3639521     4.813496 -0.0020432626 
  208800    1.6555891 -0.0057477594    2.3395426    4.8141683 0.0023656714 
  209000    1.6564391 -0.0034127905    2.3358706    4.8141048 -0.0018266518 
  209200    1.6953028 -0.0045840656    2.2787225    4.8140102 0.0012976038 
  209400    1.6519536  -0.00310257    2.3426142    4.8144386 -0.00056591905 
  209600    1.6299109 -0.0024462698    2.3753039    4.8147606 0.00082632437 
  209800    1.7170738 -0.0045456931    2.2464601    4.8144031 -0.0028430052 
  210000    1.6857944 -0.006529276    2.2960852    4.8151825 -0.0024077912 
  210200    1.7091726 -0.0045417104    2.2587481    4.8148577 0.0043696836 
  210400     1.636078 -0.0040573974    2.3687562    4.8158411 0.0007979313 
  210600    1.7007144 -0.0068570529    2.2750138    4.8161361 -0.0045792249 
  210800       1.6999 -0.0068892621    2.2773546    4.8172247 -0.0018798932 
  211000    1.7393576  -0.00612385    2.2175506    4.8173006 -0.0009576787 
  211200    1.6892625 -0.00056090021    2.2880826    4.8183441 0.0034279729 
  211400    1.7294318 -0.0043070659    2.2315195    4.8182158  0.001161006 
  211600    1.6767165 -0.0017871584    2.3078742    4.8181132 0.00045605443 
  211800    1.6892605 -0.0062724103    2.2934869    4.8180339 0.0027449831 
  212000    1.6630355 -0.0057808864    2.3328442    4.8185929 0.0056990061 
  212200     1.688373 -0.0074191708    2.2963697    4.8184402  0.002901927 
  212400     1.726939 -0.0052657348    2.2372941     4.819297 0.00085614651 
  212600    1.7203228 -0.0076076116    2.2487767    4.8185254 -0.0026293849 
  212800     1.654261 -0.0057688037     2.346251    4.8188659 0.00010504739 
  213000    1.6399587 -0.0063461536    2.3684018     4.819012 -0.0032349241 
  213200    1.6754852 -0.0055825517    2.3141513    4.8187502 0.0033126969 
  213400    1.7116607 -0.0034827016    2.2578252    4.8187213 0.0072163182 
  213600     1.698403 -0.0058852782    2.2801832    4.8188144 -0.00073410688 
  213800    1.6442238 -0.0045486087     2.360289    4.8190867 0.0036598109 
  214000    1.7027744 -0.0066761541    2.2750288    4.8194184 0.0047867081 
  214200    1.6907338 -0.0023497399    2.2898995    4.8205764 0.0030536015 
  214400    1.6834672 -0.0036493059    2.3019852    4.8204758 -0.00048817217 
  214600    1.7154645 -0.0034136149    2.2541289    4.8207929 8.2461752e-05 
  214800    1.6626309 -0.0044653162    2.3352225    4.8216806 0.0024932421 
  215000    1.6888945 -0.0041059488    2.2948655    4.8210305  0.007752015 
  215200    1.6627331 -0.0023625223    2.3331312    4.8218452 -0.0029905527 
  215400    1.6838461 -0.0031815507    2.3018785    4.8214046 0.0026652904 
  215600    1.7204563 -0.0024561916    2.2460615    4.8211617 0.0063889492 
  215800      1.65928 -0.0054012087    2.3414151     4.821917 -0.00086494448 
  216000    1.6988267 -0.0046458066    2.2815511    4.8220565 -0.0020020109 
  216200     1.693819 -0.0057101527    2.2903419    4.8222806 0.0031058703 
  216400    1.6612687 -0.0041510445    2.3383652    4.8230967 -0.00075051613 
  216600      1.64969 -0.0060414776      2.35723     4.822724 0.00038520305 
  216800     1.693836 -0.0061772294    2.2911859    4.8226828 0.00062279214 
  217000    1.6890171 -0.0066223693    2.2994963    4.8233287 0.0012487272 
  217200    1.7338654 -0.0039855855    2.2292525    4.8229125 0.0046833319 
  217400    1.6899603 -0.0042096896    2.2958732    4.8235313 -0.00051076565 
  217600    1.7007344 -0.0037837504    2.2798511    4.8240767 0.0012731655 
  217800    1.6605765 -0.0045238879    2.3411209    4.8244426 -0.00077705192 
  218000    1.7098453 -0.0049939574    2.2681097    4.8247748 0.00059194364 
  218200    1.6940998 -0.0051337506    2.2919724    4.8249082 -0.0019112711 
  218400    1.6889399 -0.0042951026    2.2985208    4.8245647  0.004853034 
  218600    1.6541043 -0.0041655922    2.3513168    4.8253003 -9.2346729e-05 
  218800    1.7225181 -0.0056045018    2.2499911    4.8250319 0.0018484876 
  219000    1.6720862 -0.0060406799    2.3276797    4.8267282 0.0033992343 
  219200     1.705693 -0.0047474401    2.2754478    4.8261387 0.00098628541 
  219400    1.6491561 -0.0025706672     2.359035       4.8272 0.0067424125 
  219600    1.6980579 -0.0068780933    2.2897034    4.8268248 -0.0025877234 
  219800    1.7071542 -0.0081105581    2.2772837    4.8268005 0.0001344654 
  220000    1.6524109 -0.0045698642    2.3567639    4.8278061 -0.00016422695 
  220200    1.7117979 -0.002857618    2.2656407    4.8273675 0.0022760645 
  220400    1.6801947 -0.0034218926    2.3140104    4.8278257 -0.0025296172 
  220600    1.7186591 -0.0033958971    2.2561418    4.8276098 0.0036153736 
  220800    1.6912502 -0.0055805222    2.3000444    4.8282642 -0.0046844043 
  221000    1.6878319 -0.0062208733    2.3061168     4.828575 0.0012463083 
  221200    1.6429824 -0.0068337756    2.3744627    4.8291153 -0.0021628327 
  221400    1.7274468 -0.007225849    2.2464667    4.8272702 0.0013314824 
  221600    1.7083426 -0.0053301178    2.2732822    4.8273599 -0.00045892015 
  221800    1.7324483 -0.0030807024    2.2354451    4.8278869 0.0018625344 
  222000    1.6607127 -0.0037883508    2.3442462    4.8285074 6.8899108e-05 
  222200    1.7232905 -0.0048785035    2.2508567    4.8277807  0.001923788 
  222400    1.7189908 -0.0052571467    2.2586799    4.8287835 0.00072107378 
  222600    1.7033398 -0.0085582297    2.2861308    4.8294853 -0.0010605584 
  222800    1.6721525 -0.0079134337    2.3329314    4.8302065 0.00035608285 
  223000    1.7116018  -0.01008821    2.2758584    4.8300609 0.0011802092 
  223200    1.6989062 -0.0067843092    2.2912739      4.82976 0.0026887788 
  223400    1.7040725 -0.0074617664    2.2851063     4.830655 0.0023356011 
  223600    1.7255731 -0.0054693519    2.2510601     4.830813 0.0033264289 
  223800    1.7406746 -0.0065053591    2.2298321    4.8311738 0.0019018292 
  224000    1.7055394 -0.005625525     2.282075    4.8316576 -0.0022229817 
  224200     1.681424 -0.0075444882    2.3204847     4.832019 -0.0032526355 
  224400    1.6831065 -0.0072986087    2.3180784    4.8323793 0.00024783386 
  224600    1.6916829 -0.0079705636    2.3062998    4.8327779 -0.00026043065 
  224800    1.7168711 -0.0054630863    2.2660344    4.8327564 0.0070921863 
  225000    1.6770328 -0.0055649313     2.326357    4.8332922 0.0005623313 
  225200    1.6675486 -0.004530074    2.3402802    4.8340411 0.00065249328 
  225400    1.6509773 -0.0060400951     2.366341    4.8337651 -0.00044518802 
  225600    1.6729541 -0.0050685279    2.3323527    4.8336736 0.0011161098 
  225800    1.7035432 -0.0047266889    2.2865907    4.8340814 0.0045119451 
  226000    1.6655277 -0.0042881806    2.3432639    4.8342391 0.0013961233 
  226200    1.7219207 -0.0028327445    2.2573475    4.8342651 0.0034749927 
  226400    1.7120283 -0.0036444393    2.2732423    4.8345275  0.010362976 
  226600    1.6401467 -0.0068782642    2.3849545    4.8353141 0.0012946688 
  226800    1.7238326 -0.0067147405    2.2594881     4.835388 0.0052593748 
  227000    1.7215883 -0.0070632841    2.2628724    4.8350614 -3.2439816e-06 
  227200    1.7168321 -0.0068695537    2.2698253    4.8350824 -0.0017345083 
  227400    1.6989443 -0.0059070165    2.2964851    4.8359055 0.0016799164 
  227600    1.7283876 -0.0062909135    2.2519952    4.8351431 0.0055351933 
  227800    1.6827935 -0.0076233793    2.3216649    4.8351721 -0.0041729715 
  228000    1.6679834  -0.01004154    2.3461536    4.8350546 0.0018831597 
  228200    1.7045653 -0.012349972    2.2936004    4.8349991 0.0067037369 
  228400    1.6925833 -0.0063019147    2.3059149    4.8354105  -0.00465624 
  228600    1.6694523 -0.0051056734    2.3393735     4.835411 0.00038180506 
  228800     1.720715 -0.00066405432    2.2570222    4.8343021 0.00081104211 
  229000    1.6843423 -0.0044274875    2.3159007    4.8349242 -0.0053437884 
  229200    1.6418029 -0.0048487342    2.3810712    4.8359418  0.001586533 
  229400    1.6671324 -0.007901682    2.3461438    4.8359096 -0.00054761559 
  229600    1.6901246 -0.0053654247     2.309054    4.8358026 0.0022125237 
  229800    1.6794091 -0.0059988143    2.3260445    4.8361059 -0.0018706345 
  230000    1.6360103 -0.0072980567    2.3931351    4.8368779 -0.0023045469 
  230200    1.6632117 -0.0057755601    2.3516252    4.8376432 0.0034363996 
  230400    1.6554472 -0.0058144392     2.362818    4.8371645 -0.0030830678 
  230600    1.7269154 -0.0041882594    2.2542306    4.8372755  0.001543318 
  230800    1.6504898 -0.0068099938    2.3720932    4.8380171 -0.002128758 
  231000    1.6924033 -0.0057360877     2.307953    4.8377447 -1.2280572e-05 
  231200    1.6737316 -0.0032907146    2.3336058    4.8378694 -0.00069417349 
  231400    1.6753135 -0.0055994021    2.3335507    4.8378756 -0.00055479615 
  231600    1.6488813 -0.0063335827     2.374508    4.8384984 -0.0033344085 
  231800     1.665606 -0.0045267803    2.3477653    4.8386192 -0.0029879543 
  232000     1.685541 -0.0024384472      2.31666    4.8394685 0.0038704332 
  232200    1.7029727 -0.0045040221    2.2923484     4.839207 -0.00010351352 
  232400    1.6568191 -0.0050006023    2.3624612    4.8396769 -0.0060937128 
  232600    1.6889472 -0.0045748388    2.3138333    4.8396085 -0.0027621786 
  232800    1.6667455 -0.0035791933    2.3464361    4.8399446 -0.00049218885 
  233000    1.6957377 -0.0047328557    2.3039103    4.8397009 0.00017155145 
  233200    1.6873651 -0.0066350415    2.3189576    4.8403023 0.0026795562 
  233400      1.68673 -0.0070298718    2.3216494    4.8416477 -0.001392888 
  233600    1.7239171 -0.0061507218    2.2650974     4.841688 0.0038013588 
  233800    1.6196722 -0.0065043979    2.4226189    4.8426779 -0.0048277749 
  234000    1.7156695 -0.0047540803    2.2756167    4.8412475 0.0019281093 
  234200    1.6422471 -0.0059948895    2.3872282    4.8416181 -0.0023995478 
  234400    1.7407864 -0.0072772619    2.2402847    4.8410221 -0.0034879137 
  234600    1.7092053 -0.0068315569    2.2877621    4.8416308 0.0027685756 
  234800    1.6857968 -0.0075783388    2.3255102    4.8435619 0.0034554662 
  235000    1.6875875 -0.0063513634    2.3205436    4.8425052 0.0025745299 
  235200    1.6587614 -0.0028568954     2.361894    4.8441633 -0.00053665716 
  235400     1.715113 -0.0035941059    2.2764694    4.8424264 0.0024741653 
  235600    1.6782831 -0.0049028376    2.3337841    4.8432545 -0.0015924946 
  235800    1.7123449 -0.0030408186    2.2810398    4.8434031 0.00037109967 
  236000    1.6646467 -0.0055864146    2.3547724    4.8431294 -0.0052403378 
  236200    1.7150004 -0.0066944773    2.2806881     4.843376 -0.004116375 
  236400    1.7243933 -0.0045453664    2.2651652    4.8440746 0.0015757419 
  236600    1.6358518 -0.0044504712    2.3981694    4.8445224 0.0013901293 
  236800    1.6953677 -0.0029080051    2.3073074    4.8443685 -4.6041592e-05 
  237000    1.6722237 -0.004576415    2.3440722    4.8447909 -0.0022049605 
  237200    1.7026346 -0.0036819865    2.2978803    4.8450546 0.0025522906 
  237400    1.6787897 -0.0056872131    2.3354462    4.8448912 0.0023901611 
  237600    1.6455875 -0.0020152657    2.3821527    4.8455267 -0.0015033308 
  237800    1.6438555 -0.0043087451    2.3869583    4.8454439 -0.0011540011 
  238000    1.6714857 -0.0056288687     2.347358    4.8459186 0.00081016001 
  238200    1.7010629 9.5304106e-05    2.2981683    4.8467651 0.0042019839 
  238400    1.7462218 -0.0052390231    2.2348579    4.8457767 0.0035757935 
  238600    1.6788384 -0.0053940896    2.3368706    4.8466817 -0.0010270723 
  238800    1.7389983 -0.0044811834    2.2456358    4.8464902 0.0023319095 
  239000    1.6874367 -0.0056035109    2.3245008    4.8469843 -0.002893203 
  239200    1.7069103 -0.0058905183    2.2954771    4.8468485 0.0028754379 
  239400    1.7042762 -0.004251421    2.2981749    4.8472391 0.0067771474 
  239600    1.6891543 -0.0046159547    2.3216075    4.8476518 -0.0031250738 
  239800    1.7405081 -0.0039363502    2.2434294    4.8470907 -0.00068207534 
  240000    1.7082102 -0.0044578543    2.2933556    4.8481072 -0.0013298229 
  240200    1.7114617 -0.0043569123    2.2889479    4.8486719  0.008790834 
  240400    1.6686958 -0.0071552494    2.3554321    4.8482867 -8.2804752e-05 
  240600    1.7203846 -0.0065854315    2.2777326     4.848596 -0.0026767335 
  240800    1.6967765 -0.0063041876    2.3123907    4.8481662 7.5941924e-05 
  241000     1.713674 -0.0041878669    2.2848096     4.848017 0.00074754519 
  241200    1.6708273 -0.0032051659    2.3481343    4.8481322 0.0013077361 
  241400    1.6956595 -0.006593745    2.3143063    4.8481188 0.0046183391 
  241600    1.6866691 -0.0050674962    2.3261631    4.8480326 0.0043900269 
  241800    1.6958793 -0.0049892179    2.3126499    4.8483962 0.00029187884 
  242000    1.6490394 -0.004612937    2.3823902     4.848338 -0.0014976405 
  242200    1.6518198 -0.0076115374    2.3823422     4.849457 0.00063089188 
  242400    1.6926998 -0.0062938534    2.3196349    4.8493131  0.002680721 
  242600    1.6985698 -0.0062687147    2.3112112    4.8497089 -0.00020863785 
  242800    1.6668697 -0.0082582803    2.3601881    4.8492038 -0.0053055648 
  243000     1.717739 -0.0082944572    2.2841654    4.8493563 0.0011747505 
  243200    1.6839676 -0.0084486794    2.3350963    4.8495373 5.3723148e-05 
  243400    1.7626878 -0.0091997937    2.2184686    4.8500956 0.0015798369 
  243600    1.7131272 -0.00036739741    2.2853952    4.8516038 -0.0016434421 
  243800     1.721455 -0.0040857781    2.2756257    4.8505925 -0.0012014598 
  244000       1.7764 -0.0040958764     2.193097    4.8503713 0.0030812659 
  244200    1.6788025 -0.011232529    2.3469142    4.8508331 -0.004040905 
  244400    1.6893592 -0.0063917103    2.3273357    4.8519112 -0.00071689105 
  244600      1.64351 -0.0059047588    2.3955214    4.8518935 0.0038429921 
  244800    1.6706827 -0.0043606368    2.3530924    4.8517182 -0.0006837706 
  245000    1.6306997 -0.0032669733    2.4126559    4.8524735 -0.0040855807 
  245200     1.662913 -0.0046442908    2.3659321    4.8526339 0.0032379636 
  245400    1.6832646 -0.0035067694    2.3345818    4.8529114 -0.0034935069 
  245600    1.7023399 -0.0049350358    2.3068157    4.8522954 -0.00043532681 
  245800    1.7617879 -0.0054352502    2.2183012    4.8523447 0.0021873245 
  246000    1.6508187 -0.0049066207    2.3847021    4.8530221 0.0025898293 
  246200    1.6580852 -0.0021993585    2.3721713     4.854085 -0.0036801129 
  246400    1.6872801 -0.0037254848     2.328794    4.8529209 -0.00090775179 
  246600    1.7059772 -0.0056258747    2.3031434    4.8533815 0.0013402071 
  246800    1.6744936 -0.0073764177    2.3529294    4.8542488 -0.0019094019 
  247000    1.6689983 -0.0091952679    2.3626522    4.8539198 0.0068591249 
  247200     1.687597 -0.0047711976    2.3309248    4.8544808 -0.0049416831 
  247400    1.6829711 -0.0053815768    2.3385168    4.8545319 0.0044122127 
  247600    1.7256272 -0.0091062022    2.2780214    4.8542184  0.005248022 
  247800    1.6989413 -0.0055005351    2.3150903    4.8549127 0.0032335124 
  248000    1.6737307 -0.0055447317    2.3529164    4.8549246 -0.001525176 
  248200    1.7526608 -0.0033016879    2.2320342    4.8545371 0.0056722424 
  248400    1.7227484 -0.004118057    2.2780951    4.8549675 0.0021785367 
  248600     1.746195 -0.0075662783    2.2472046    4.8557559 -0.0017923985 
  248800    1.6766141 -0.0065071309    2.3514865    4.8568521 -0.001464033 
  249000     1.673643 -0.0060347754    2.3556359    4.8570226 0.00086621259 
  249200    1.6906977 -0.0050708209    2.3302071    4.8581088 0.0055955328 
  249400    1.6700513 -0.0047496369    2.3604209    4.8577117 -0.0034617812 
  249600    1.7173901 -0.0066167199    2.2912499    4.8575958 0.0074305732 
  249800    1.6849918 -0.0031663398    2.3361471    4.8574049 0.0054126368 
  250000    1.7112728 -0.0065644644    2.2999809    4.8572142 -0.0052515966 
  250200     1.681642 -0.0056388346    2.3439762    4.8577429 -0.0036343271 
  250400    1.7500308 -0.0042998024    2.2400379    4.8576025 0.0031563414 
  250600    1.6719403 -0.0031098814    2.3561235    4.8578843 -0.00010845243 
  250800    1.6515502 -0.0034732978    2.3874523    4.8583014 -0.0038755761 
  251000     1.632863  -0.00395547    2.4160906    4.8584608 -0.0012032272 
  251200     1.681434 -0.0052077794    2.3442798    4.8581658 -0.0016827333 
  251400    1.7203947 0.0018790145     2.279307    4.8586501 0.0048397007 
  251600    1.7532088 -0.0033603007    2.2348435    4.8581087 0.0035702713 
  251800    1.7354556 -0.0028335208    2.2617403    4.8589348 0.00065320385 
  252000    1.6694028 -0.0038509634    2.3620285    4.8592464  0.008181419 
  252200    1.6466138 -0.0030511691    2.3963549    4.8602306 0.0031498657 
  252400    1.7415453 -0.0052327309    2.2556774    4.8595962 0.0066068674 
  252600    1.6663714 -0.0043946493     2.368269    4.8604017 0.0015322018 
  252800    1.7215314 -0.0054630389    2.2870097    4.8607137 0.0049791521 
  253000    1.7255827 -0.00067534496    2.2758657    4.8604269 0.0010826733 
  253200    1.7072972 -0.0047523798    2.3074464    4.8605357 0.0012787679 
  253400    1.6981575 -0.0073444672    2.3240451    4.8608493 -0.0027330746 
  253600    1.6450249 -0.0039918833    2.4011994    4.8617539 -0.003925981 
  253800    1.7084403 -0.0068744516    2.3080749    4.8607547   0.00337393 
  254000    1.7122629 -0.0065728894    2.3031401    4.8618484 0.0021982678 
  254200    1.7349686 -0.0047571619    2.2671419    4.8616831 0.0011098712 
  254400    1.6901378 -0.0040358123    2.3340275    4.8621254 0.0017162044 
  254600    1.6849493 -0.0076285402    2.3450721     4.861804 -0.00057413634 
  254800    1.7474261 -0.010268426    2.2538926    4.8615863 -0.0022261445 
  255000    1.6908462 -0.0082890055    2.3376586    4.8625647 0.0023311322 
  255200    1.6952968 -0.0022693035    2.3248714     4.862465 0.0035396515 
  255400    1.6911583 -0.0070486532    2.3363488    4.8629628 -0.0029712124 
  255600    1.6599303 -0.0077089419    2.3846158    4.8637842 0.0016908704 
  255800    1.7429694 -0.0052620064    2.2569023    4.8629253 0.0028339295 
  256000    1.7183219 -0.0055292966    2.2948189    4.8636482 0.0018730472 
  256200    1.6682738 -0.0044062202    2.3688179    4.8637891 0.0014386879 
  256400    1.7024619 -0.008354873    2.3217996    4.8640422 0.0050054116 
  256600    1.7291512 -0.0066920313    2.2798903    4.8637811 -0.0021891479 
  256800    1.7140809 -0.0044333423    2.3017746     4.865346  0.002888455 
  257000    1.7099612 -0.0045177815    2.3076542    4.8649693 0.0063793225 
  257200    1.6947951 -0.004816858    2.3309097     4.865204 -0.002177796 
  257400    1.7542708 -0.0025800938     2.238899    4.8645356 0.0023953256 
  257600    1.6865064 -0.0033858389    2.3419174    4.8652247 -0.00038160256 
  257800    1.7346913 -0.0040038134    2.2709497    4.8658289 -0.0025834088 
  258000    1.7507826 -0.0039323933    2.2473884    4.8664466 0.0057777181 
  258200    1.7235615 -0.0087920647      2.29283    4.8662464 0.0026375474 
  258400    1.7010638 -0.0052454012    2.3232205    4.8664779 0.0033118784 
  258600     1.691896 -0.0042171683    2.3359841    4.8665348 0.0024245002 
  258800    1.7570376 -0.0020944741    2.2363538    4.8666211 -0.0015056649 
  259000    1.6900742 -0.0086282461    2.3437599    4.8671702 0.0031230393 
  259200    1.7136198 -0.0091474733    2.3091427    4.8673093 0.0051086677 
  259400    1.7268853 -0.0072272017    2.2873663    4.8673273 0.0025803058 
  259600    1.7028996 -0.0076001129     2.323971    4.8676241 -0.0030855692 
  259800    1.7405359 -0.0051989815    2.2651351    4.8675753 0.0022290438 
  260000    1.6611816 -0.0062012395    2.3861653    4.8687162 -0.0008181364 
  260200     1.669388 -0.0060848389    2.3731123    4.8680742 -0.0043471521 
  260400    1.7346797 -0.0046351484     2.273426    4.8676565 0.0041748934 
  260600    1.6910064 -0.0083288598    2.3432616    4.8683677 0.0020392584 
  260800    1.7260348 -0.0079810672    2.2908577    4.8687906 -0.00013049354 
  261000    1.7285681 -0.0053671132    2.2845403    4.8688825  0.003514557 
  261200    1.7353511  -0.01117707    2.2797289    4.8684233 -0.00081864636 
  261400    1.7179689 -0.0087608886    2.3042974    4.8693663 -0.00052876407 
  261600     1.657468 -0.0075742272     2.393613    4.8692273 0.0024790997 
  261800    1.7513441 -0.0037534283    2.2484187    4.8684972 -0.0022322912 
  262000    1.7280338 -0.0058507713    2.2857479    4.8688059 0.0019831889 
  262200    1.6927029 -0.0056010702    2.3390986    4.8694741 0.0069016586 
  262400    1.6723724 -0.0068506957    2.3711851    4.8698522 0.0021213372 
  262600    1.6639096 -0.0068176497    2.3840835     4.870105 -0.0058715386 
  262800    1.6880178 -0.0094423944    2.3511942    4.8707094 -0.0033640597 
  263000    1.6719051 -0.0028293464    2.3686885     4.870677 0.00074629046 
  263200    1.6996522 -0.0042162111    2.3287513    4.8709231 0.0017445798 
  263400    1.6326741 -0.0042776274    2.4296828    4.8714479 0.00016875199 
  263600    1.7289356 -0.0063165511    2.2867759    4.8707192 0.0081096846 
  263800    1.6692518 -0.0060570854    2.3764608    4.8712463 -0.0017541195 
  264000    1.6922329 -0.0028787586    2.3399043    4.8722981 0.0032481222 
  264200      1.73899 -0.0051518101    2.2713639    4.8715353 0.0034598455 
  264400    1.7292731 -0.0070363334    2.2879794    4.8717086 -0.00019690107 
  264600    1.7032455 -0.0068554385    2.3276525    4.8725685  0.001782689 
  264800    1.7360889 -0.0016361472    2.2735913     4.872932  0.004037531 
  265000    1.7308922 -0.0034669989    2.2825324    4.8722566 -0.0023536185 
  265200    1.6271932 -0.0022653547    2.4371721     4.872738 -0.0041790682 
  265400    1.7378959 -0.0022274246    2.2710336    4.8724902 0.0036863787 
  265600     1.672004 -0.0061616662    2.3743952    4.8731995 -0.0019154838 
  265800    1.7275249 0.0080206139    2.2773689    4.8735359 0.0015526778 
  266000    1.6882722 -0.0036795248    2.3464093    4.8720684 -0.0018207675 
  266200     1.631903 -0.006269244     2.434161    4.8727791 -0.0052230471 
  266400    1.7013734 -0.0068461754    2.3306037    4.8727242 0.00020312491 
  266600    1.6921464 -0.0056932576    2.3435654    4.8730151 -0.0037900458 
  266800    1.7129185 -0.0062376182    2.3126183     4.872644 0.0011275146 
  267000    1.6844882  -0.00872566    2.3585536    4.8734976 -0.0013237955 
  267200    1.6725812 -0.008390711    2.3761245    4.8735646 0.0032503359 
  267400    1.6489414 -0.0099042908    2.4127699    4.8732797 0.0030983204 
  267600    1.7020959 -0.0093961003    2.3323543    4.8730073 -0.0060376625 
  267800    1.7163807 -0.007628566    2.3101507    4.8739725 -0.00048403845 
  268000    1.6834857 -0.0070416963    2.3592052    4.8743313 0.0016472872 
  268200    1.6904939 -0.0054340724    2.3474433    4.8746765 -0.0023634243 
  268400     1.672077 -0.0069278825    2.3772134    4.8753609 0.00041618002 
  268600      1.74568 -0.0020261068    2.2619365    4.8752565 0.0033668861 
  268800    1.7317513 -0.0027963814    2.2828614    4.8745434 0.0017416706 
  269000    1.7146848 -0.0021642354    2.3079077    4.8746531 -0.0022317723 
  269200    1.7207554 -0.0031212324    2.2998706    4.8747538 0.0023027461 
  269400    1.6446411 -0.0047760599    2.4163202    4.8755155 -0.00065446315 
  269600    1.6855572 -0.0089881165    2.3583833    4.8746664 -0.0027344859 
  269800    1.6910859 -0.0068510775    2.3483148    4.8750179 -0.001647445 
  270000    1.7530815 -0.0071047917    2.2555977    4.8749277 0.0034189784 
  270200    1.7346706 -0.0077701156    2.2834817    4.8745636 -0.0030003765 
  270400    1.7081795 -0.0063510734     2.321939    4.8747515 0.00049983083 
  270600    1.7202142 -0.004053361    2.3019621    4.8751024 -0.00084833597 
  270800    1.6624476 -0.0030295107    2.3875384    4.8751578 -0.001603131 
  271000    1.7050472 -0.0027084591    2.3237023    4.8754646 -0.0008966648 
  271200    1.6805647 -0.0045166637    2.3621784    4.8754531  -0.00241516 
  271400    1.7203337 -0.003901515    2.3023831    4.8758543 0.0016824766 
  271600    1.7272539 -0.0068137531     2.294351    4.8752777 0.0086032677 
  271800    1.6964221 -0.0051014724    2.3385689    4.8750162 0.0016987125 
  272000    1.6332684 -0.0020029456     2.431021    4.8759512 -0.0012256544 
  272200    1.6842171 -0.0028852224    2.3556059    4.8759841 -0.0014065979 
  272400    1.7218491 -0.0041326061    2.2997967    4.8753071 -0.0017760357 
  272600    1.6953299 -0.0059333599    2.3420769     4.876056 -0.00044300788 
  272800    1.6749198 -0.0038629819    2.3714401    4.8769115 0.0012123972 
  273000    1.7492687 -0.0073391069    2.2629524    4.8763358 0.00041549751 
  273200    1.6956624 -0.0035021999    2.3399858    4.8768942 -0.0025438614 
  273400    1.7074799 -0.0066264792    2.3251577    4.8766465 -0.0029037565 
  273600    1.7043473 -0.0041512183    2.3275249    4.8767959 0.0034444401 
  273800    1.7185445 -0.0030318158    2.3047907     4.876451 -0.0013345485 
  274000    1.6717133 -0.0056718694    2.3783554     4.877214 -0.0011221052 
  274200     1.687985 -0.0043424603    2.3527689    4.8773349 -0.001060068 
  274400    1.7373267 -0.0040268472    2.2785443    4.8773488 0.0044903908 
  274600    1.6995169 -0.0049984145    2.3364048    4.8775917 -0.0016365908 
  274800    1.7226922 -0.0053760529     2.302154     4.877684 0.0052121357 
  275000    1.6517447 -0.0037122435    2.4074668    4.8783685 -0.0017959541 
  275200    1.6582747 -0.0058289918    2.3999908    4.8785589 0.00072329361 
  275400    1.6784588 -0.0043304296    2.3681639    4.8784699 0.0016741878 
  275600    1.7329224 -0.0039946808    2.2861887    4.8784269 0.0015564552 
  275800    1.6747405 -0.0043051019    2.3744538    4.8792145 -0.00060415415 
  276000    1.7595711 -0.0042610281    2.2462706     4.878167 0.00059052447 
  276200    1.7064997 -0.0035473554    2.3259638    4.8790633 -0.00047261941 
  276400    1.8015191 -0.0039357908    2.1836234    4.8786907 -0.0010420169 
  276600    1.7068741 -0.0043013832     2.326466    4.8793723 0.0027615448 
  276800    1.6816377 -0.0053041908    2.3650959    4.8791907 0.0014459404 
  277000    1.6961405 -0.0079649538    2.3461989    4.8793608 0.0012744247 
  277200    1.6445548 -0.0055005259    2.4212996    4.8796412 0.0015027894 
  277400    1.7758506 -0.0063003298    2.2237995    4.8780463 -0.0042768671 
  277600    1.7558622  -0.00795467    2.2559339    4.8785801 -0.0027942872 
  277800    1.6862487 -0.0062720256    2.3588981    4.8789332 -0.00046401376 
  278000    1.6928047 -0.0083493832    2.3520211    4.8798009 0.0039707163 
  278200    1.6877864  -0.01439157    2.3661041    4.8803235 0.0013950362 
  278400    1.6978756 -0.0097708991    2.3461114    4.8800668 0.0018310015 
  278600    1.7070741 -0.012870371    2.3354559     4.880093 -0.0016107037 
  278800    1.6278412 -0.006899617    2.4500762    4.8819787 -0.0016886119 
  279000    1.7142824  -0.00920633    2.3217468    4.8808472 0.00025900918 
  279200    1.7279428 -0.0063936292    2.2993833    4.8817622 0.0020880536 
  279400     1.699874 -0.0047304131    2.3401318    4.8821217 -0.00048138601 
  279600    1.6840784 -0.0068019763    2.3664854    4.8827392 -0.001346875 
  279800    1.7156365 -0.0045797812    2.3165808    4.8823364 -0.0037526185 
  280000    1.7067542 -0.0046773114    2.3301129    4.8824636 0.00046680435 
  280200    1.7197288 -0.0070018264    2.3133379    4.8828026 0.0062467255 
  280400    1.6448355 -0.010274535    2.4286268    4.8826148 -0.0032673717 
  280600     1.682116 -0.0045967649     2.368788    4.8843068 0.0018044122 
  280800    1.7602479 -0.0049955161    2.2506352     4.882811  0.001928318 
  281000    1.6461371 -0.0038682388    2.4222314    4.8845759 -0.004420223 
  281200    1.7041926 -0.0079405837    2.3383128    4.8835626 -0.0024532536 
  281400    1.7533806 -0.0064020505     2.263116    4.8835969 0.0022607897 
  281600    1.7107373 -0.005781523    2.3268385    4.8840525 -0.0011486704 
  281800    1.7608505 -0.0043032136    2.2497743    4.8835453 -0.0028343358 
  282000    1.7270033 -0.005788523    2.3021011    4.8836774 0.0016598869 
  282200    1.6980169 -0.0038493248    2.3448343     4.884923 0.0043354122 
  282400     1.702775 -0.0028394951    2.3370783    4.8853053 -0.0014558716 
  282600    1.7225379 -0.0029218029    2.3068006    4.8845537 -0.0019895654 
  282800    1.6354819 -0.0032362847    2.4378551    4.8848681 -0.0049215882 
  283000    1.6500874 -0.0055448709    2.4184473    4.8850334 0.0025938535 
  283200    1.6450428 -0.0052693304    2.4264431    4.8857469 -0.0059819785 
  283400     1.752678 -0.0061359605    2.2656524    4.8853467 -0.00090762466 
  283600    1.7440199 -0.0060640815    2.2788165    4.8856114 0.0071443401 
  283800    1.6781518 -0.004200245    2.3761729    4.8861493 0.0012995901 
  284000    1.7135849 -0.0058176121    2.3243755    4.8858196 -0.0016310318 
  284200     1.701919 -0.0054011734    2.3415469    4.8859298 0.0024212987 
  284400    1.6672865 -0.0044446183    2.3931668    4.8866206 0.0019381018 
  284600    1.7351334   -0.0045009     2.291406    4.8864503 0.0041116203 
  284800    1.7303547 -0.0034717216    2.2977916    4.8867058 0.0029032923 
  285000    1.6877552 -0.003813595    2.3619746    4.8867251 -0.0048086121 
  285200    1.6838745 -0.0029209943    2.3669323    4.8867615 -0.0026975194 
  285400    1.6885738 -0.0048768765    2.3623744     4.887288 0.0022466815 
  285600    1.6799226 -0.0062773027      2.37706    4.8876122 -0.0071244783 
  285800     1.752206 -0.0037956531    2.2664524    4.8877799 0.0065173611 
  286000     1.735555 -0.0060447977    2.2938844    4.8880165 0.0071273343 
  286200    1.6934126 -0.0082640896    2.3591556    4.8879314 -0.0048648063 
  286400    1.7416616 -0.010169846    2.2887885    4.8879444 0.0056285211 
  286600    1.7131782 -0.0048114353     2.327153     4.888994 0.0015211812 
  286800    1.7020064 -0.0049603508    2.3438799    4.8888346 -0.0012352864 
  287000    1.7112249 -0.0046348123    2.3295467     4.888638 0.0037281512 
  287200    1.6808188 -0.0061538289     2.377074    4.8890924 0.00081010073 
  287400    1.6651697 -0.0083701248    2.4027838    4.8891407 0.00083681057 
  287600    1.6674848 -0.0076827412    2.3980233     4.888536 0.0033994461 
  287800    1.6809693 -0.0061603916    2.3775045    4.8897418 0.0020942578 
  288000    1.7766936 -0.0083574111    2.2357862    4.8892389 -0.0019035856 
  288200    1.6716353 -0.0082576258     2.393474    4.8896299 -0.0013490127 
  288400    1.6815743 -0.0035194913    2.3757011    4.8914857 0.0029622319 
  288600    1.7055234 -0.0041078953    2.3391876    4.8902639 -0.0029671349 
  288800     1.721529 -0.0055418607     2.317202    4.8908236  0.005256937 
  289000    1.6552392 -0.0042117674     2.416169    4.8918066 0.00026292486 
  289200    1.6670486 -0.0040988085    2.3990733    4.8925163 3.0120088e-05 
  289400    1.7123007 -0.0082529419    2.3346483    4.8917332 0.0041623618 
  289600    1.7192152 -0.0070079893    2.3233407    4.8920296 -0.0026841433 
  289800    1.7349963 -0.0082272452    2.3020456    4.8931583 -0.0029316644 
  290000    1.6696319 -0.0070522445    2.3992969    4.8936568 0.00072392598 
  290200    1.7407216 -0.007345584    2.2923772    4.8929491   0.00215228 
  290400    1.6811891 -0.0078678079    2.3828941    4.8937531 0.0011575682 
  290600    1.7392264 -0.011591586    2.2998791    4.8939649 0.0030028508 
  290800    1.7146431 -0.012348105    2.3373039    4.8938029 -0.0025257019 
  291000    1.7101731 -0.0052265136    2.3374783     4.894402 0.0076682473 
  291200    1.7609223 -0.0058329403    2.2627027    4.8950515 8.7448576e-05 
  291400    1.6935496 -0.0071308074    2.3653457    4.8954601 -0.0034232507 
  291600    1.6778808 -0.0090061146    2.3909111    4.8956756 0.0028575716 
  291800    1.7096451 -0.0066413673    2.3407995    4.8955173 0.0015396903 
  292000    1.7071665 -0.0071258353    2.3455803    4.8961002 0.00069367928 
  292200    1.7522093 -0.0055462175    2.2762205    4.8958024 0.00081446277 
  292400    1.6890943 -0.0099505359    2.3758366    4.8964565 0.0008913394 
  292600    1.7185815 -0.0065774061    2.3279808    4.8961509 0.00013311189 
  292800    1.7207468 -0.009141442    2.3276365    4.8964867   0.00192907 
  293000    1.7499321 -0.0069051486     2.281451    4.8962623 -0.00047517867 
  293200    1.7147291 -0.0047157269    2.3328348    4.8970951 -0.0034064481 
  293400    1.7312294 -0.0066713625    2.3100044    4.8970294 0.0044927124 
  293600    1.6904016 -0.0045572279     2.369551    4.8975227 -0.0018353736 
  293800    1.6905497 -0.0064831301    2.3718248    4.8980924 -0.0045981256 
  294000    1.7321628 -0.005045806    2.3082872    4.8983362 -0.0003269138 
  294200     1.678069 -0.0057926629    2.3908536    4.8991134 -0.0030525306 
  294400    1.6851129 -0.0016785084    2.3767859    4.8997129  0.002947724 
  294600    1.7551694 -0.0024467593    2.2717344    4.8988505 -0.002220064 
  294800    1.7335551 -0.0019864346    2.3043609    4.8995552 0.0033574275 
  295000    1.6465843 -0.0015149162    2.4345349    4.8999027 -0.0041213874 
  295200    1.6793414 0.00010846729    2.3840337     4.900101 0.00056371695 
  295400    1.7127398 -0.0057949073    2.3402435    4.9004442 0.0012361688 
  295600    1.7145555 -0.0068965394    2.3388014    4.9006208 0.0047498954 
  295800    1.7061721 -0.0038232096    2.3487574    4.9010903 -0.0035113577 
  296000    1.7853941 -0.0062643934    2.2316753    4.9002558 -0.0021860277 
  296200    1.7393344 -0.004158186    2.2992543    4.9009352 0.00078240927 
  296400    1.6801779 -0.006452803    2.3913022    4.9020615 -0.00082143273 
  296600     1.749694 -0.004445303    2.2844437    4.9013582 0.0027195857 
  296800    1.7075263 -0.0031542129     2.347163    4.9021937 0.00080667198 
  297000    1.7055513 -0.0034807715    2.3504618     4.902207 -0.00090174933 
  297200    1.6946299 -0.006862345     2.369758    4.9017594 0.0032361177 
  297400    1.6515669 -0.0057211071     2.433734    4.9023604 0.0012110329 
  297600    1.6908269 -0.0044284271    2.3732864    4.9020241 -0.0044366239 
  297800    1.7135544 -0.0044531538    2.3401226    4.9028856 0.0015256408 
  298000    1.6859147 -0.0074095284    2.3841539    4.9025512 -0.0070950029 
  298200    1.7847377 -0.0067137583     2.235014    4.9021617 0.0092329994 
  298400    1.6929102 -0.0079358433    2.3745864    4.9029379 -0.00097320669 
  298600    1.6871081 -0.0080605394    2.3835326    4.9030668 -0.0055754861 
  298800    1.6647012 -0.0082729507    2.4182922    4.9040444 0.0051355105 
  299000    1.6706857 -0.0067436152    2.4074055    4.9036528 -0.0048177878 
  299200    1.7612198 -0.006200856    2.2702133    4.9026399 0.0016280229 
  299400    1.6444856 -0.0076126766     2.447629    4.9037547 0.0023295102 
  299600    1.6421705 -0.006032875    2.4497078    4.9039449 -0.0040418642 
  299800    1.7383636 -0.008134246    2.3072072    4.9034577 -0.0041201166 
  300000    1.7058417 -0.0078856927    2.3564946    4.9042698 0.0024058853 
  300200    1.7343796 -0.0069747075    2.3133051    4.9047464 0.0015458073 
  300400    1.7217924 -0.0045383829    2.3307158    4.9057355 0.0014682179 
  300600    1.6637366 -0.0048827062    2.4176931    4.9053903 -0.0021385314 
  300800    1.7156464 -0.0059482036    2.3412463    4.9056484 0.00061533886 
  301000    1.6993825 -0.0080978747    2.3686772    4.9065633 0.0018096778 
  301200    1.6697936 -0.0037688765    2.4087816     4.906667 0.0032875889 
  301400    1.6684858 -0.0045015671    2.4115117    4.9067052 0.00029122008 
  301600    1.7079718 0.00031178604    2.3476393    4.9068033  0.004467349 
  301800    1.7587446 -0.0059136836    2.2776393    4.9066448 -0.0023612002 
  302000    1.7333282 -0.0047124003    2.3142886     4.906417 0.0016237816 
  302200    1.7746823 -0.0069555827    2.2545049    4.9063461 0.0077465535 
  302400    1.7348211 -0.0048318483    2.3136204    4.9078661 0.0052257599 
  302600    1.6695207 -0.0028164969    2.4097399    4.9081689 -0.001506219 
  302800    1.6558421 -0.0034486958    2.4306098    4.9079137 0.00040084791 
  303000    1.7348524 -0.0027630062    2.3117067     4.908068 -0.0023731634 
  303200    1.7531765 -0.0030784655     2.285103    4.9086018  0.002763259 
  303400    1.7341985 -0.0042133967    2.3146736    4.9086049 -0.0038849005 
  303600     1.654474 -0.0059448434    2.4363014    4.9090595 -0.0048627159 
  303800    1.6501142 -0.0095196301     2.446836    4.9094875 -0.00062970077 
  304000    1.6317028 -0.0085594679    2.4736598    4.9096878 0.00056462642 
  304200     1.743693 -0.0079647173    2.3050623    4.9094667 -0.0015020642 
  304400    1.7283576 -0.0075762869    2.3282558    4.9100735 -0.00015550358 
  304600    1.6990478 -0.0027171205    2.3683235    4.9110889 -0.002486686 
  304800    1.7200323 -0.0070537271    2.3407158    4.9105832 0.00037293455 
  305000    1.7315455 -0.0088156638    2.3260859    4.9114402 -0.00053902579 
  305200    1.7314528 -0.004890173    2.3242097    4.9133506 0.00099597407 
  305400    1.7180406 -0.0049259381    2.3431279     4.912139 -0.0021675368 
  305600    1.7167155 -0.0063532816    2.3469286    4.9125273 -0.0023554835 
  305800    1.7491566 -0.0076343116    2.2995699    4.9124903 0.0059789624 
  306000    1.7012489 -0.0067246647     2.370644    4.9126995 0.0033197839 
  306200    1.6091151 -0.0053236316     2.507165    4.9125883 -0.0049803684 
  306400    1.6780042 -0.0063767826    2.4049221    4.9125007 -0.0021641641 
  306600    1.7413134 -0.0057080104    2.3086383    4.9117343 0.00096862974 
  306800    1.7087761 -0.006462119    2.3577616    4.9113567 -0.0018484824 
  307000    1.6975083 -0.0073709302    2.3770421    4.9128473 0.0028312383 
  307200    1.6740713 -0.0035458579    2.4085883    4.9131057 -0.0094286405 
  307400     1.698469 -0.0050852807    2.3732776    4.9128076 -0.0034490901 
  307600    1.7076025 -0.0064193878    2.3606362    4.9125159 0.0012789498 
  307800    1.6823853 -0.0033449955    2.3963673    4.9135413 -0.00049815844 
  308000    1.6359029 -0.0047371909    2.4680998    4.9142426 -0.0019809167 
  308200    1.7118094 -0.0030991984    2.3520559    4.9135585 -0.0030795422 
  308400    1.7005467 -0.0055130068    2.3725369    4.9147521 0.00049364879 
  308600    1.6643493 -0.0081925665    2.4288645    4.9141699 -0.0060234967 
  308800    1.6665425 -0.0077916678    2.4259565    4.9149485 -0.0025953642 
  309000    1.6920076 -0.0090113902    2.3894303     4.915354 -0.0022379168 
  309200     1.710879 -0.0056376259    2.3577876    4.9153578 0.0011877085 
  309400    1.6584707 -0.0078880866    2.4394661    4.9162687 0.0021366096 
  309600    1.6855785 -0.007754602    2.3987189    4.9162673 -0.0022804631 
  309800    1.7653359 -0.0043829234    2.2757691    4.9161803 -0.0005943405 
  310000    1.7347975 -0.0049817909    2.3220767     4.916137 0.00023173528 
  310200    1.6882785 -0.0071417182    2.3948705     4.917077 -0.0047653311 
  310400    1.6870908 -0.0046945077    2.3939508    4.9168251 -0.006487806 
  310600    1.6975068 -0.0041956429    2.3773982    4.9163764 0.0012963423 
  310800    1.7077467 -0.0058323791    2.3644153    4.9170979 -0.00097702293 
  311000    1.7062945 -0.0045541523    2.3650224    4.9168077 -0.0028206553 
  311200    1.7007016 -0.0049197512    2.3733128    4.9163533 0.0059745446 
  311400    1.7342568 -0.0073837411    2.3261065    4.9169548 -0.0045581717 
  311600    1.7005378 -0.0050836711    2.3738467    4.9164778 -0.003361949 
  311800    1.7079682 -0.0044078384    2.3624113    4.9168504  0.004975582 
  312000    1.6997116 -0.0049211516    2.3751177    4.9166735 -0.0017401869 
  312200    1.6991908 -0.0049587748    2.3767453    4.9174833 -0.0023045407 
  312400     1.661827 -0.003555285    2.4323605    4.9185242 0.0028176752 
  312600    1.7120676 -0.0038550017    2.3571906    4.9183242 0.0006387713 
  312800    1.6593623 -0.0043684637    2.4375872    4.9192452 -0.0015407897 
  313000    1.7326642 -0.0037064377    2.3265995    4.9187391 0.0020301531 
  313200    1.7424419 -0.0067204652    2.3156639    4.9194381 -0.002611988 
  313400    1.7456966 -0.0057064951    2.3098348    4.9194991 -0.0017539546 
  313600     1.774818 -0.0034055355    2.2640411    4.9196356 0.0069059679 
  313800    1.7241453 -0.00041723311     2.338888    4.9215539 0.0057062155 
  314000    1.6891951 -0.0044125036    2.3951258    4.9214348 0.00028820083 
  314200    1.7126488 -0.0021104712    2.3577312    4.9214801 -0.00029662728 
  314400    1.7750199 -0.0044773997    2.2668149    4.9216401 0.00046839323 
  314600    1.6563497 -0.0022549433    2.4432866    4.9225446 -0.0020439017 
  314800    1.7637987 -0.0034049201    2.2837529    4.9228391 0.0019493753 
  315000    1.6424047 -0.0049373947    2.4676809    4.9233645 -0.002226723 
  315200    1.7200432 -0.004198286    2.3505269    4.9232661 0.0055734664 
  315400    1.7498967 -0.0052505475    2.3067195    4.9231324 0.0038866731 
  315600    1.7183909 -0.0061046526      2.35568    4.9240374 0.00054563238 
  315800    1.7426838 -0.0050005609    2.3172358    4.9230924 0.0011009192 
  316000    1.7246188 -0.0048083433    2.3441882    4.9231723   0.00148047 
  316200    1.7289024 -0.0035559026    2.3367555    4.9234097 0.0043433055 
  316400    1.7068203 -0.00016980182    2.3671214    4.9240788 0.0020062139 
  316600     1.772256 -0.003638043    2.2719545    4.9234781 0.0060754373 
  316800    1.6842022 -0.0038982012    2.4045763    4.9239191 -0.001788274 
  317000    1.7569795 -0.0037502815    2.2955626    4.9240871  0.002408858 
  317200    1.7361597 -0.0037043505    2.3268016      4.92418  0.001296151 
  317400    1.6904993 -0.0029096658    2.3950463    4.9248119 0.0030535348 
  317600    1.7075857 -0.0049851509    2.3713002    4.9245889 0.0023539295 
  317800    1.6757416 -0.0050432467    2.4199583    4.9254806 -0.0045548947 
  318000     1.707046 -0.0069571716     2.375031     4.925539 -0.001347857 
  318200     1.741057 -0.0030511145    2.3198109    4.9251797 0.0031343903 
  318400    1.6863007 -0.0019349836    2.4016017    4.9260518 -0.0047821633 
  318600    1.7161428 -0.0050146558     2.359967    4.9260463 0.0015279501 
  318800    1.7704856 -0.0067542046    2.2799536    4.9257088 -4.843502e-05 
  319000    1.7230408 -0.0042617549    2.3503652    4.9275317 -0.0027225012 
  319200    1.7189892 -0.0066309933    2.3587016     4.927429 -0.0019037411 
  319400    1.7536812 -0.0066443003    2.3071532    4.9278422 -0.00098083964 
  319600    1.7279756 -0.0074494407    2.3464441    4.9278162 0.0035304249 
  319800    1.7102191 -0.0068128612    2.3729845    4.9283907 -0.0029036648 
  320000    1.7169974 -0.0032522146    2.3595129     4.928635 -0.0017786812 
  320200    1.7023341 -0.0046859588    2.3827723    4.9284924 -0.0014192015 
  320400    1.6488727 -0.0032893367    2.4629794    4.9300012 -0.0008629424 
  320600    1.7345888 0.0033595265    2.3283752    4.9304641 -0.0012403956 
  320800    1.7172779 -0.0049451441    2.3616206    4.9294701 0.0023002455 
  321000    1.7472322 -0.0035416034     2.315559    4.9296889  0.004558211 
  321200    1.6534886 -0.0052137887    2.4579793    4.9299921 0.0038521426 
  321400    1.6575016 -0.006033207    2.4530708    4.9302764 0.0016046981 
  321600    1.7234196 -0.0079023743    2.3554964    4.9295899 0.0003485153 
  321800     1.747692 -0.010235554    2.3214848    4.9296096 -0.00085969704 
  322000    1.7260377 -0.0045726559    2.3490757    4.9304214 0.0047086373 
  322200    1.7676278 -0.0051798988    2.2870155    4.9300634 -0.0029506069 
  322400    1.7587639 -0.0059056659    2.3012772    4.9303196 0.0084882345 
  322600    1.7203377 -0.0043675638    2.3580898    4.9311009 0.0021232451 
  322800     1.741046 -0.0065783257    2.3290848    4.9309099 -0.00010153167 
  323000    1.7070676 -0.0031060351    2.3763102    4.9307018 -0.0004708643 
  323200    1.7719259 -0.0069974437    2.2833477    4.9310174 0.0066180145 
  323400    1.6933904 -0.0053689388    2.4001428    4.9317805 -0.00067325929 
  323600    1.7608519 -0.0054220072     2.299425    4.9320793 0.0024201867 
  323800    1.7529517 -0.0037734899     2.309892    4.9323589 3.2642126e-05 
  324000    1.8161185 -0.0044430642     2.215496    4.9319286 0.0025793991 
  324200    1.7256556 -0.0041891459    2.3510678    4.9322244 -0.00094335442 
  324400    1.6988924 -0.0050540139    2.3924322    4.9326279 0.0051759366 
  324600    1.7553881 -0.0058927026    2.3099405    4.9339382 -4.858944e-05 
  324800    1.7460493 -0.0032727745    2.3212413    4.9338679 -0.00067301946 
  325000     1.705149 -0.0044865828    2.3843257    4.9344624 -0.0061721832 
  325200    1.7259437 -0.0020530806    2.3521467     4.935871 0.0031473796 
  325400    1.6859199 -0.0048039179    2.4142476    4.9352583 0.0017920754 
  325600    1.7884811 -0.0055972777    2.2608752    4.9347477 0.0022781459 
  325800    1.7274435 -0.0042474042    2.3511726    4.9349496 -0.0035901611 
  326000    1.7939586 -0.0046389498    2.2519618     4.934999 0.0010269442 
  326200    1.7015478 -0.0034394912      2.39002    4.9358084 -0.0048607076 
  326400    1.7183764 -0.0075775705    2.3688646    4.9357273 0.0017735297 
  326600    1.7266332 -0.0049200724    2.3539842    4.9358745 0.0016342504 
  326800    1.7295099 -0.0055958508    2.3503843    4.9359087 -0.0015468945 
  327000    1.6679011 -0.0054922277    2.4432301     4.936557 0.00053409431 
  327200    1.7696929 -0.0080088992    2.2932209    4.9365336 0.0072326997 
  327400    1.7023397 -0.0051730534    2.3926763    4.9379176 -0.00084555085 
  327600    1.7187138 -0.0018594253    2.3644634    4.9375498 -0.00044178136 
  327800    1.7485281 -0.0015105624     2.319262    4.9373644 0.0015060363 
  328000    1.7235156 -0.0032117623    2.3590635    4.9379915 -0.00063918693 
  328200    1.6926109 -0.0033898448    2.4058131    4.9382621 4.3467149e-05 
  328400     1.671298 -0.0051329249    2.4399832    4.9387585 0.0022280404 
  328600    1.7622916 -0.0058143189    2.3037662    4.9381852 0.00068722294 
  328800    1.7025004 -0.0045633741    2.3923299    4.9384217 -0.00056060116 
  329000    1.6929207 -0.005902841    2.4080466    4.9384468 0.0015724694 
  329200    1.7860776 -0.0045685514     2.266895    4.9381953 0.0036493432 
  329400    1.7271197 -0.0055265156    2.3569422     4.938955  0.002356809 
  329600    1.6988241 -0.0054349004    2.3993531    4.9390656 -0.0017588224 
  329800    1.7230678 -0.0069990969    2.3648818    4.9393516 -0.0021485183 
  330000    1.7587543 -0.0073354501     2.312585    4.9401832 0.0062234911 
  330200    1.7289971 -0.0059135246     2.355301    4.9397394 -0.00040703475 
  330400     1.706168 -0.0057980586    2.3899562     4.940308 0.00080108455 
  330600    1.7577342 -0.005366223    2.3116636    4.9397028 -0.00048468517 
  330800     1.769964 -0.0065836744    2.2941507     4.939295 0.0023836529 
  331000    1.7255026 -0.0054759085    2.3605459    4.9401866 0.0040637005 
  331200    1.6766491 -0.0030567977    2.4316403    4.9405087 0.00040869403 
  331400     1.708758 -0.0055793536    2.3865244    4.9409753 0.00093988829 
  331600    1.7203835 -0.0082556944    2.3715189    4.9407104 0.0023229017 
  331800    1.7085019 -0.0094016479    2.3913214    4.9415662 0.0057644369 
  332000    1.7164859 -0.010307012    2.3806623    4.9419632 0.0043698314 
  332200    1.7275002 -0.0061586541    2.3599951    4.9419458 0.0011669792 
  332400    1.7322092 -0.0058333436    2.3525249    4.9418558 0.0031726251 
  332600    1.6750557 -0.008614671    2.4415785    4.9425019  0.002433418 
  332800    1.7108503 -0.0098714646      2.38966    4.9429534 -0.00093260686 
  333000    1.7242236 -0.0088638315    2.3685778    4.9429144 0.00070257478 
  333200    1.7185989 -0.0097757183    2.3784493    4.9434473 -0.0012473829 
  333400    1.7124205 -0.0062812281    2.3843874    4.9436234 0.0013339097 
  333600    1.7885084 -0.0093253109    2.2739155    4.9441009 0.0031776739 
  333800    1.7486693 -0.010205977    2.3354633    4.9450819 0.00024499661 
  334000    1.7119868 -0.0069115533    2.3878567    4.9458126 0.0036431565 
  334200    1.7472043 -0.0061015385    2.3336413    4.9451695 0.0073502128 
  334400    1.7120738 -0.0059310345    2.3864972     4.945564 -0.0025648872 
  334600     1.682406 -0.0035941225    2.4296398    4.9465957 -0.00047370572 
  334800    1.7027647 -0.0039841676    2.4001179    4.9471848  0.001451837 
  335000    1.7581392 -0.005071692    2.3174331    4.9463736 0.00034881754 
  335200    1.7178959 -0.0064257731    2.3799866    4.9472813 -0.0019195944 
  335400    1.7167209 -0.0040198455    2.3792745    4.9472147 0.0036617814 
  335600    1.6950264 -0.0041351835     2.410495    4.9458176 -0.0042555597 
  335800    1.7113711 -0.0046027578    2.3873399    4.9466822 -0.0024398068 
  336000    1.7793411 -0.004597192    2.2855697    4.9467491 0.00052780658 
  336200    1.7604737 -0.0028254903    2.3130171    4.9477013 0.0033141308 
  336400    1.7361789 -0.0025779762    2.3490044     4.947538 0.0022139561 
  336600    1.7243936 0.0010964154    2.3640566    4.9486082 -0.00023826686 
  336800    1.7181575 -0.0066615936    2.3808834    4.9483341 -0.0024449533 
  337000    1.7238866 -0.0050752483    2.3704696    4.9480898 0.0019202044 
  337200    1.7385411 -0.0032084625    2.3466228    4.9480649 -0.0014784836 
  337400     1.761253 -0.0035197397    2.3138837    4.9490411 -0.00091395713 
  337600    1.6917011 -0.0012065934    2.4174155    4.9506847 0.0010333269 
  337800    1.7311964 -0.003689145    2.3600711    4.9500289 -0.001538434 
  338000    1.7334199 -0.0071157413    2.3596964    4.9495588 0.0054429707 
  338200    1.7407163 -0.004908425    2.3471484    4.9501496 -0.00042455193 
  338400    1.8114143 -0.0024900362    2.2390472    4.9503851 0.00099913504 
  338600    1.7133684 -0.0034623776    2.3873026    4.9507777 -0.0024563686 
  338800    1.7550097 -0.0047561506    2.3256157    4.9501831  0.010459724 
  339000    1.6926489 -0.0057411686    2.4203717    4.9505263 0.00097055869 
  339200    1.6809657 -0.0048063021    2.4372637    4.9508497 0.00032565658 
  339400    1.6953428 -0.0044448621    2.4158169    4.9513038 0.0014516621 
  339600    1.7724542 -0.0044363998    2.3001138    4.9511361 0.0064983173 
  339800    1.7044352 -0.0045051734    2.4026275    4.9516761 -0.0032646744 
  340000     1.750451 -0.0055364723    2.3343637     4.951321 0.0037097973 
  340200    1.6821964 -0.0052786539    2.4369534    4.9519107 -0.0010258129 
  340400     1.747568 -0.0044082685     2.337861    4.9516273 -0.0030586853 
  340600    1.7745968 -0.0075275607    2.2995857    4.9507268 -0.001443347 
  340800    1.7893759 -0.008218067    2.2782159    4.9508083 0.0086317156 
  341000    1.6926817 -0.0059317376    2.4225345    4.9525478 -0.0049399197 
  341200     1.719063 -0.0096520321     2.385737    4.9515539 -0.00040478938 
  341400    1.7603266 -0.0078502098    2.3229733    4.9524124 0.0020268046 
  341600    1.7612412 -0.0058388912    2.3196584    4.9524791 0.0033479079 
  341800    1.7799936 -0.0061681251    2.2922339    4.9528198 -0.0015596115 
  342000    1.7331929 -0.0074582677    2.3647368    4.9539165 0.00086819998 
  342200    1.7023659 -0.008242596    2.4117327    4.9539437 0.0073846578 
  342400    1.7005213 -0.0032373972    2.4101715    4.9546242 -0.0018188563 
  342600    1.7882251 -0.0064705874    2.2813217    4.9539375 0.0045901389 
  342800    1.7089149 -0.0084326514    2.4021347    4.9539674 0.00047890948 
  343000    1.7125774 -0.005078735    2.3931991    4.9538727 -0.00074512858 
  343200    1.7175045 -0.0087953359    2.3901574    4.9544961 0.0026546418 
  343400    1.6701362 -0.011101936    2.4636133     4.954679 0.00042803214 
  343600    1.6932038  -0.01212752     2.430392    4.9549916 7.4677522e-05 
  343800    1.6997705 -0.012067295    2.4203498    4.9548477 -0.0017911911 
  344000    1.7379732 -0.0051068375    2.3559595    4.9546525 -0.0040529014 
  344200    1.7123638 -0.0058724426    2.3952771     4.954837 -0.0012796951 
  344400    1.7455447 -0.0059794517    2.3459804    4.9551442 0.0067668085 
  344600    1.7215553 -0.0066343319    2.3831994    4.9557679 -0.0026998807 
  344800    1.7292846 -0.0034270444    2.3688017    4.9561574 -0.0013525444 
  345000    1.7011614 -0.0049855588    2.4124133    4.9560769  0.003593292 
  345200    1.6968111 -0.0071899104    2.4211841    4.9561258 -0.0012782283 
  345400    1.7020362 -0.0057119504    2.4130527    4.9573005  0.003515627 
  345600    1.6655558 -0.0092292868    2.4707157    4.9567919 -0.0025528743 
  345800      1.73071 -0.007058856    2.3713788    4.9572381 0.0054224981 
  346000    1.7167241 -0.0022366794    2.3885825    4.9583107 0.0017891363 
  346200    1.6874475 -0.0083611945    2.4382154    4.9579573 -0.0011611585 
  346400    1.8109225 -0.0081634051    2.2524592     4.957387 0.0022201646 
  346600     1.668293 -0.006332793    2.4648123    4.9578858 -0.0025467485 
  346800    1.6961401 -0.0066400148    2.4235001    4.9579863 0.00069063937 
  347000    1.7454264 -0.0065496986    2.3496153    4.9580316  0.003081864 
  347200    1.7863432 -0.0067456627    2.2897243    4.9592455 0.0023090056 
  347400    1.6578375 -0.0044227942     2.480152    4.9594712 0.00047456461 
  347600     1.720606 -0.0049820026    2.3863424    4.9591411 0.00074171646 
  347800    1.6957134 -0.0080469779    2.4275292    4.9599692 -0.0025415316 
  348000    1.7427493 -0.010039875    2.3594821    4.9603975 0.0028455682 
  348200    1.7541421 -0.0039229821    2.3365091      4.96061 -0.00017738456 
  348400    1.6991678 -0.0038391705    2.4192913    4.9611145 -0.0030897746 
  348600    1.7284107 -0.0048123905    2.3763361    4.9609973 -0.0013403126 
  348800    1.7061804 -0.0050768156    2.4101043     4.961196 5.4201608e-05 
  349000    1.7213321  -0.00742362    2.3906773    4.9621222 0.0014197601 
  349200    1.7394806 -0.003380163    2.3602012    4.9628792 0.0012395027 
  349400    1.7269804 -0.0081501171    2.3832618    4.9624423 0.00019959907 
  349600    1.7159846 -0.0043396922    2.3960744    4.9625917 0.0021801237 
  349800     1.693893 -0.0054905325    2.4312247     4.963494 -0.0020158616 
  350000    1.7278972 0.0043614445    2.3722749    4.9653404 0.0021207968 
  350200    1.7011706 -0.0043062995     2.419744    4.9641005 -0.0052885167 
  350400    1.7720731  -0.00245954    2.3116353    4.9640635 -0.0029460207 
  350600     1.737112 -0.0050002289    2.3674223    4.9649317 0.0082055648 
  350800    1.7521983 -0.008919563    2.3479971    4.9641892 0.00052513911 
  351000    1.7769717 -0.0099934983    2.3123989    4.9646321 0.0013546641 
  351200    1.7459258 -0.0066060756    2.3557593    4.9648675 0.0047203477 
  351400    1.7501033 -0.0064442036    2.3502618    4.9657905 0.0015399454 
  351600     1.772491 -0.0067969655    2.3167278    4.9654446 0.0018308822 
  351800    1.7053782 -0.0048068845     2.415849    4.9660087 0.0016036445 
  352000    1.7183978 -0.0028962941    2.3942652    4.9658412 -0.0018695608 
  352200    1.7057028 -0.004636753    2.4151707    4.9659868 -0.0025869967 
  352400    1.7454344 -0.0072827425    2.3580202    4.9657156 0.00053087366 
  352600     1.702685 -0.0023198596    2.4183678    4.9669796 -0.00066657772 
  352800    1.7523487 -0.0017385368    2.3434734    4.9670719 -0.0020171042 
  353000    1.6777775 -0.003454716     2.457118     4.967279 -0.0015320053 
  353200    1.7802996 -0.0038166663    2.3031966    4.9665924 0.0025265894 
  353400    1.7310639 -0.006274806    2.3801779    4.9673516 0.0040773391 
  353600    1.6978072 -0.0050483725     2.429457    4.9680325 0.0011068152 
  353800    1.7091445 -0.003438757    2.4112563    4.9684268 0.0031777762 
  354000    1.7242852 -0.0056690016    2.3902544    4.9678781 0.00078566612 
  354200    1.7122041 -0.0045812212    2.4079023    4.9685142 0.0024581398 
  354400    1.7523138 -0.0038856467    2.3460625    4.9674615 -0.0017821679 
  354600    1.7882359 -0.0065552953    2.2953285    4.9678758 -0.0030078254 
  354800    1.7321749 -0.0065551004    2.3797219    4.9682798 0.0010552113 
  355000    1.7320458 -0.0050199773    2.3795015    4.9694011 0.0027681685 
  355200    1.7512317 -0.0076897148    2.3528473    4.9688211 -0.0035652186 
  355400    1.7111819 -0.0053546526    2.4117684    4.9700754 0.0025237717 
  355600     1.700222 -0.0054134382    2.4275143    4.9693426 0.0041714412 
  355800    1.7671431 -0.0052401282    2.3272076    4.9694691 -0.0023267108 
  356000    1.7210557 -0.0040008241    2.3953824    4.9698359 -0.0013287003 
  356200    1.7435558 -0.0096112232    2.3673369    4.9698894 -0.00056773588 
  356400    1.7755327 -0.0079668114    2.3177579    4.9698619 -0.0053799442 
  356600    1.7606199 -0.0087333198     2.341345    4.9703404 0.0047714722 
  356800    1.7243641 -0.0059436091    2.3929162    4.9703834 -0.0065748881 
  357000    1.6925784 -0.0077834265     2.443179    4.9711858 0.00081251784 
  357200    1.7626096  -0.00637101     2.336315    4.9706535 -0.0005628262 
  357400    1.7280304 -0.0079134627    2.3893289    4.9703191 0.0070060606 
  357600    1.7940983 -0.0067924505     2.288486    4.9695789 -0.0029378043 
  357800    1.7452817 -0.0049938208    2.3607917    4.9705472 -0.00035854496 
  358000    1.7583433 -0.0066767051    2.3427458    4.9703871 0.0070249976 
  358200    1.7282625 -0.0056630121    2.3873529    4.9709414 0.0042614696 
  358400    1.7479239 -0.005244431     2.357679    4.9711424 -0.00083467581 
  358600    1.6901212 -0.0060047054    2.4457364    4.9718406 -0.0025052017 
  358800    1.7261069 -0.0065723007     2.392032    4.9714817 -0.0022212077 
  359000    1.7859277 -0.0036738736    2.2993788    4.9713494 0.0071988483 
  359200    1.7533332 -0.0075159866    2.3530036    4.9722996 0.00019940186 
  359400    1.7756739 -0.0070389896    2.3193839    4.9726272 0.00023264753 
  359600    1.7097333 -0.0059454777     2.417802    4.9733479 -0.0034541819 
  359800    1.7728949 -0.006443227    2.3232217    4.9728974 -0.0023975902 
  360000      1.72405 -0.0054457657    2.3962506    4.9737451 -0.001822743 
  360200    1.7004051 -0.0062453074    2.4331075    4.9743782 0.0020161193 
  360400    1.7626575 -0.007266135    2.3404729    4.9739882 0.0082349412 
  360600    1.7989549 -0.0073633903     2.286062    4.9738601 0.00060385722 
  360800    1.6884538 -0.0036484026    2.4485958    4.9745582 -0.001046883 
  361000    1.7535285 -0.0070526441     2.354547    4.9745988 -0.00047067112 
  361200    1.7677706 -0.0060853599     2.332852    4.9752084 0.0064773385 
  361400    1.7351071 -0.0078663423    2.3841845     4.975824 -0.0014358962 
  361600    1.7419208 -0.0074626513    2.3738427    4.9760942 -0.0058791952 
  361800    1.7031013 -0.0043139621    2.4291581    4.9763995 0.0022707832 
  362000    1.6899618 -0.0041936664    2.4490067    4.9766831 -0.0046507387 
  362200    1.7158196 -0.0042511291    2.4099783    4.9763369 -0.0027315921 
  362400    1.6658136 -0.0027017253    2.4841933    4.9771832 0.0071913313 
  362600    1.6495486 -0.0041841845    2.5104349    4.9775745 -0.0023897328 
  362800    1.7222515 -0.0050566537    2.4017517    4.9769409 -0.0014919515 
  363000    1.7520238 -0.0054277069    2.3577387    4.9771612 0.0034750737 
  363200    1.7742233 -0.0041009786    2.3233166    4.9773246 0.0037213541 
  363400    1.7478754 -0.0044886402    2.3630457    4.9771922 0.0025781592 
  363600    1.7710142 -0.0050662516    2.3296003    4.9778353 -0.0003703082 
  363800      1.72031 -0.0066616327    2.4077478    4.9784234 0.0033426454 
  364000    1.7337736 -0.0021933238    2.3832582     4.978573 0.0071414497 
  364200    1.7361052 -0.0018066712     2.379963    4.9791576 -0.00028778159 
  364400    1.7637663 -0.0056908129    2.3419483    4.9787002 -0.00052315933 
  364600    1.7145448 -0.0049609661    2.4150088    4.9787477 0.0017500941 
  364800    1.7230577 -0.0033959407    2.4004803     4.978538 0.00037876376 
  365000    1.7389991 -0.0027377575    2.3766114    4.9792104 -0.0027372868 
  365200     1.724151 -0.0036587707    2.3998131     4.979246 -0.001228323 
  365400    1.7134048 -0.0039488183     2.416768    4.9798111 -0.0018686078 
  365600     1.780663 -0.0057116373    2.3174263    4.9794716 -0.0033460862 
  365800    1.6698598 -0.0044439952    2.4829012    4.9802108  0.000552375 
  366000    1.7251077 -0.0033899193    2.3988871    4.9800222 0.00084987999 
  366200    1.6996544 -0.0025519781    2.4364589    4.9802983 0.0024229297 
  366400    1.7574617 -0.0032376573    2.3505689    4.9803285 0.0034093341 
  366600    1.8110563 -0.0038875524    2.2705366    4.9799406 0.0016460376 
  366800    1.7258296 -0.0037775251     2.399656     4.981485 0.0012127329 
  367000    1.7782162 -0.0055773606    2.3221517    4.9806655 0.0017554613 
  367200    1.7683994 -0.0080980842    2.3404027    4.9816885 0.0027395939 
  367400     1.720429 -0.0060132018    2.4101263    4.9816286  0.003621134 
  367600    1.7101105 -0.0070481627     2.426098    4.9811062 -0.0003049908 
  367800    1.7127219 -0.0062697964    2.4218225    4.9815215 -0.00037843826 
  368000    1.7266554 -0.0047092652    2.3998622    4.9819967 -0.0028591282 
  368200    1.7171311 -0.0054818472     2.414962    4.9820548 -0.0034225977 
  368400    1.7397452 -0.0072020235    2.3829326    4.9821852 0.0026632021 
  368600    1.7135281 -0.0079361759    2.4231327    4.9823732 -0.0017912863 
  368800    1.7684601 -0.0040448402    2.3370498    4.9824796 0.0011033237 
  369000    1.7739589 -0.0037554874    2.3287459    4.9827034 0.0007448512 
  369200    1.7670924 -0.0065126938    2.3423397    4.9832527 0.0021716829 
  369400    1.7264123 -0.0019604883    2.3989652    4.9834842  0.003355867 
  369600    1.7635366 -0.0050568167     2.345659    4.9827006 0.0036007957 
  369800    1.7383756 -0.0062192928    2.3851682    4.9833516 -0.0034559737 
  370000    1.7520832 -0.0053276649    2.3638183    4.9834298 -0.00017455843 
  370200    1.6907464 -0.0027331438    2.4537168    4.9840292 0.0019204383 
  370400     1.704802 -0.0058416867    2.4358289    4.9840906 0.0025720661 
  370600    1.7436245 -0.011423302    2.3835671    4.9844102 0.0022345606 
  370800    1.7890099 -0.0093466424    2.3132886    4.9842041 -0.0027788253 
  371000    1.7625842 -0.0082232545    2.3524494    4.9848978 0.0029819954 
  371200    1.7593455 -0.0080692797    2.3573114    4.9850616 0.0030793838 
  371400    1.7606124 -0.0084552538    2.3561939    4.9854561 0.0008700849 
  371600    1.7141646 -0.0058222144    2.4234406    4.9857487 -0.0017784252 
  371800    1.7361047 -0.0089569448    2.3932801    4.9853236 0.0019365912 
  372000    1.7366676 -0.0083508894     2.391803     4.985296 0.0041261085 
  372200    1.7233142 -0.0097911267    2.4139763    4.9860232 -0.0018487216 
  372400    1.7827712 -0.0074975377    2.3225816    4.9859995 0.0030226247 
  372600    1.7705932 -0.013361857    2.3470194     4.986328 0.0047118257 
  372800    1.7415156 -0.0089166586    2.3863911    4.9865814 0.00084322785 
  373000    1.7358515 -0.0069100761    2.3935517    4.9872629 0.0032573575 
  373200    1.7038718 -0.010340622    2.4448727    4.9872418 0.0011666939 
  373400      1.76172 -0.010317178    2.3585293     4.987589 -0.0034501505 
  373600    1.7020175 -0.0073757468    2.4445421     4.987098 0.0026414882 
  373800     1.734799 -0.0086159099     2.397172    4.9876003 -0.00086236309 
  374000    1.7376745 -0.0068210328    2.3911383    4.9876696  0.006096816 
  374200    1.7258898 -0.0043511151    2.4078882    4.9892339 -0.0019909068 
  374400     1.727324 -0.0042252318    2.4049981    4.9886183 -0.0014357178 
  374600    1.7527064 -0.0044660346    2.3669267    4.9883336 0.00052014534 
  374800    1.7558854 -0.0060500017     2.363522    4.9881076 0.00033562939 
  375000    1.7396761 -0.0092887632    2.3913661    4.9884284 0.0021220021 
  375200    1.7393194 -0.0077834105    2.3902754    4.9883087 0.0013080434 
  375400    1.7450571 -0.011553011    2.3858329    4.9886927 -0.0055265736 
  375600    1.7654338 -0.0071235061    2.3525453    4.9903627 0.0026428748 
  375800    1.7196779 -0.0039135374    2.4177717    4.9902483 0.0034155173 
  376000    1.7543107 -0.0053308544    2.3674971    4.9904427 0.00087917734 
  376200    1.7504229 -0.0065001178    2.3746265    4.9905782 -0.0044570796 
  376400    1.7611804 -0.0094374096    2.3618226    4.9909537 -0.0006963033 
  376600    1.7042731 -0.0056233539    2.4440563    4.9917439 0.0059797338 
  376800    1.7224527 -0.0029063641    2.4137631    4.9914041  0.003576848 
  377000    1.6982588 -0.0060605872    2.4539518    4.9921916 -0.0049358506 
  377200    1.7323689 -0.006050677     2.403608     4.992961 0.0025902097 
  377400    1.7965722 -0.0076439353    2.3083281     4.992276 0.00032965329 
  377600    1.7059444 -0.0032170392    2.4407301     4.993328 0.00067190459 
  377800    1.6833319 -0.0041493646    2.4757279    4.9935158 -0.0043928936 
  378000    1.7225264 -0.0041691405    2.4166332    4.9931218  0.004864593 
  378200    1.7339475 -0.0093048971    2.4055138    4.9939774 -0.0024148684 
  378400    1.7617984 -0.010420031    2.3645641    4.9936383 0.0026100813 
  378600    1.7597659 -0.0097077474    2.3660706    4.9928122 0.0016349093 
  378800    1.7076087 -0.0049264664    2.4404346    4.9938165 0.0024905769 
  379000    1.7334949 -0.0070951435    2.4035983    4.9935937 -0.0018418904 
  379200    1.8010511 -0.0073677192    2.3028073    4.9937417 0.00067351013 
  379400    1.7213794 -0.008066341    2.4234261     4.994299 0.0037425386 
  379600    1.7400618 -0.008515571    2.3957586    4.9941719 0.0041603279 
  379800    1.7143661 -0.0067290003    2.4327339     4.994437 -0.0046328215 
  380000    1.7739451 -0.0051841371    2.3417675    4.9942757 -0.00031571007 
  380200    1.7466044 -0.0045460026    2.3827475    4.9949325 -0.0015653142 
  380400    1.7718888 -0.0079899935    2.3476911    4.9943127 0.00087452157 
  380600    1.6937719 -0.0055616786    2.4629687    4.9949853 0.0021930323 
  380800    1.7117341 -0.005201369    2.4357256    4.9950132  0.004483743 
  381000    1.7460094 -0.0067748706    2.3860303     4.995095 0.0040097199 
  381200      1.75829 -0.0054279173    2.3663904    4.9952005 0.00098578342 
  381400    1.7145904 -0.0033021657    2.4308494    4.9963154 0.0019058782 
  381600    1.7896792 -0.0039207067     2.318597    4.9959412 0.0042471887 
  381800    1.7737423 -0.006045542    2.3451072    4.9964502 0.0032383518 
  382000    1.7772995 -0.0067687211    2.3406878    4.9966369 0.0031539469 
  382200    1.7146687 -0.0056091842    2.4337309    4.9970071 0.00079457173 
  382400    1.7345069 -0.0058029963    2.4044244     4.997228 0.0027977091 
  382600    1.7373883 -0.0054604234    2.3996549    4.9971181 -0.0011560756 
  382800    1.7046142 -0.0020664074    2.4461766    4.9979322 0.0011619827 
  383000     1.709856 -0.0040196376    2.4404181    4.9980736 -0.0014094017 
  383200     1.712791 -0.0024932146    2.4337842    4.9973634 0.00017548754 
  383400    1.7837789 -0.0038063255      2.32892    4.9975387 0.0020456454 
  383600    1.7207355 -0.0041443751    2.4242817     4.998112 0.0043872202 
  383800    1.7084067 -0.0041471755    2.4435767    4.9989334 -0.0037819732 
  384000    1.7830621 -0.0071117659    2.3344602    4.9986996 0.00019774864 
  384200    1.7878882 -0.0062774362    2.3266315    4.9989357 0.0060163152 
  384400    1.7016075 -0.0039152801    2.4543618     4.999764 -0.00048836942 
  384600    1.7246829 -0.0046392922    2.4202928    4.9995421 -0.0023814363 
  384800    1.7516172 -0.0049952845     2.380223    4.9994688 0.0010270927 
  385000    1.6937065 -0.0037701323    2.4667235    5.0004337 -0.0022026565 
  385200     1.738352 -0.0034753081    2.3996241    5.0005161 0.0021751227 
  385400    1.7683176 -0.0046176474    2.3559346    5.0005782 -0.0026942332 
  385600    1.8008148 -0.0069815554    2.3093651    5.0003316 0.0029203178 
  385800    1.7162773 -0.0040464328    2.4338029     5.001052 0.0026055968 
  386000    1.7727784 -0.0036411293    2.3497525    5.0020557 -0.0022986905 
  386200    1.6771271 -0.0071512011    2.4966561    5.0021462 -0.0055532204 
  386400    1.7339333 -0.003876459    2.4085926    5.0024634 -0.0057160016 
  386600    1.7426868 -0.0069637779    2.3989387    5.0028367 -0.00092234373 
  386800    1.7391727 -0.0047535707    2.4021053    5.0029486 -0.0010471473 
  387000    1.7629736 -0.003453949    2.3646865    5.0024875 -0.0011903541 
  387200    1.7080645 -0.005422895    2.4498775    5.0034458 -0.0031231254 
  387400    1.7479505 -0.0044680941    2.3903278    5.0046073 0.0036233032 
  387600    1.7923237 -0.003080123    2.3230117    5.0051583 0.0029110235 
  387800    1.7396629 -0.0032011716    2.4023877    5.0055179 -0.0032339815 
  388000     1.797447 -0.0010567636    2.3133757    5.0052213 0.0059560893 
  388200    1.7072855 -0.002448726    2.4509235    5.0062989 -0.0022738094 
  388400    1.7676586 -0.0055036135    2.3632354    5.0060057 0.0051154837 
  388600    1.7242035 -0.0061514307    2.4298207    5.0068395 -0.00072139135 
  388800     1.751757 -0.0072960078    2.3896764    5.0068308 -0.0040764641 
  389000    1.7645879 -0.0039387392    2.3675734    5.0073082 -0.0012516484 
  389200    1.7123679 -0.0050433766     2.447794    5.0081891 0.0053523839 
  389400     1.780646 -0.0049911337     2.345712    5.0084523 -0.00097344817 
  389600    1.7723781 -0.0041098124    2.3572849    5.0085197 0.0013312733 
  389800    1.7324003 -0.0035989173    2.4172534    5.0091051 0.0013979548 
  390000      1.71418 -0.0025158334    2.4440578    5.0096954 -0.00063775444 
  390200    1.7208798 -0.0039207344    2.4354655    5.0097356 -0.001156458 
  390400    1.7644007 -0.0048314359    2.3715387    5.0101002 -0.002271866 
  390600    1.7553299 -0.0023012052    2.3834305    5.0109326 -0.0021719304 
  390800    1.7770525 -0.0026938142    2.3507515    5.0104054 0.0021954114 
  391000    1.7382955 -0.0050648767    2.4116323    5.0108501 0.0010739344 
  391200    1.7769052 -0.0034713331    2.3528764    5.0115321 0.0038305567 
  391400    1.7557672 -0.0073393626    2.3890996    5.0122187 -0.00013450188 
  391600    1.7212419 -0.0060784189     2.439218    5.0118729 -0.003504302 
  391800    1.7388434 -0.006639189    2.4135392    5.0120036 0.0053691284 
  392000    1.7504555 -0.0016006732    2.3915833    5.0124832 -0.001504838 
  392200    1.7569826 -0.0027897494     2.382741    5.0122305 -0.0012506618 
  392400    1.6988377 -0.003190113    2.4712256    5.0132032 -0.0040446264 
  392600    1.7085083 -0.0029225735    2.4564382    5.0131718 0.0005057416 
  392800     1.756006 -0.0058717776    2.3882196    5.0131642 -0.00014901429 
  393000    1.8141272 -0.0085942345    2.3039682    5.0132664 0.0053821318 
  393200    1.7562761 -0.0073496328    2.3896897     5.013561 -0.00060300864 
  393400    1.7678335 -0.011189258    2.3763983    5.0137451 0.0045615234 
  393600    1.7401294 -0.0095330871    2.4163391    5.0138362 0.0013728219 
  393800    1.7828013 -0.0077566251    2.3513545    5.0145584 0.0045489812 
  394000    1.7429716 -0.0085854105    2.4118363    5.0145393 -0.00019369748 
  394200    1.7290881 -0.0058841141    2.4310864    5.0156907 -0.0019063304 
  394400    1.8022599 -0.0064994447    2.3215619    5.0151755 0.0057263452 
  394600     1.729179 -0.0064946306    2.4322946    5.0164246 -0.001425429 
  394800    1.7401064 -0.0072319552    2.4171094    5.0168732 0.0028898344 
  395000    1.7490385 -0.0051820715    2.4015708    5.0167664 0.0026400974 
  395200    1.7631269 -0.0051835011    2.3806925    5.0169936 -0.0017998431 
  395400     1.678817 -0.0039301813     2.506991    5.0182339 -0.0047892657 
  395600     1.842714 -0.0077625804    2.2640438    5.0170019 0.0020386788 
  395800     1.703132 -0.0059730929    2.4719917    5.0176201 -0.001919594 
  396000    1.7457972 -0.0045081063    2.4071189    5.0181323 0.0027514938 
  396200    1.7876016 -0.0099836849    2.3504608    5.0186293 -0.0022551776 
  396400     1.726097 -0.0096265297    2.4429205    5.0193011 0.00025788899 
  396600    1.8064163 -0.0065003445    2.3187776    5.0186173 0.0030211502 
  396800    1.7506289 -0.0062083685    2.4029697    5.0195217 -0.00098626708 
  397000    1.7451819 -0.0022767153     2.407787      5.02011 -0.0030749525 
  397200    1.7592688 -0.0087394801    2.3928112    5.0197761 0.00061529924 
  397400    1.7132156 -0.0095222434    2.4629124    5.0200987 0.00029392414 
  397600    1.7260289 -0.0051108505    2.4397168    5.0205111 0.0030359749 
  397800    1.7885227 -0.0046269669    2.3463307    5.0212359 -0.0021791796 
  398000    1.7483193 -0.0091101902    2.4107411    5.0209311 0.0030473185 
  398200    1.7481467 -0.0055171615    2.4072265     5.020751 0.0026564566 
  398400    1.7760725 -0.0054505783    2.3654344    5.0208633 -0.0016307667 
  398600    1.6957241 -0.007292439    2.4878939    5.0211045 -0.0022684661 
  398800    1.7569708 -0.0077862383    2.3966328    5.0211082  0.004642593 
  399000    1.7475578 -0.0054670336    2.4090048    5.0216972 -0.0008164945 
  399200    1.7839091 -0.0067985309    2.3554987    5.0213203 0.0034953966 
  399400    1.7336174 -0.010948935    2.4366772    5.0230023 0.00092183978 
  399600    1.7473093 -0.014145398    2.4191914     5.022833 0.00062565405 
  399800    1.7445613 -0.013035372    2.4225826    5.0232172 0.00042868485 
  400000    1.7411023 -0.010044822    2.4251271    5.0235701 -0.0017127932 
  400200    1.8095228 -0.0066674178    2.3192919    5.0236186 -0.00029058428 
  400400    1.7726136 -0.0069413304    2.3751451    5.0239013 -0.0018696455 
  400600    1.8286297 -0.006201905    2.2898592     5.023277 0.0005517946 
  400800    1.7705926 -0.013304349    2.3849739    5.0243393 0.00077889748 
  401000    1.7559491 -0.012221726     2.406327    5.0248363 0.0029901787 
  401200       1.7204 -0.013248098    2.4610141     5.025238 -0.007122572 
  401400    1.7000527 -0.011708882    2.4899224    5.0252015 -0.0035760793 
  401600     1.832371 -0.0092550921    2.2890867    5.0250566  0.003688945 
  401800    1.7139905 -0.0051012837    2.4629408    5.0257089 0.0013472559 
  402000    1.7032613 -0.0066104413    2.4808548    5.0260395 -0.00078334589 
  402200    1.7470874 -0.0043560007    2.4128371    5.0259357 0.0014973078 
  402400    1.7911434 -0.0050128077    2.3471682    5.0256139 0.00027474369 
  402600    1.7529776 -0.004731474    2.4043302    5.0258778 0.0032367051 
  402800    1.7323399 -0.004876944    2.4357356    5.0262187 0.00087509994 
  403000    1.7410924 -0.0051524634    2.4232482    5.0265688 -0.0027211834 
  403200    1.8066183 -0.0075644751    2.3271814    5.0262596 0.00040687961 
  403400    1.7618047 -0.0087889959    2.3959729    5.0266876 -0.0016860404 
  403600    1.7690624 -0.0073051649    2.3837227    5.0267945 0.0016295046 
  403800    1.7037904 -0.0077060851     2.483014    5.0278957 -0.0015602454 
  404000    1.7617428 -0.0069805297    2.3960491    5.0284796 0.0055871543 
  404200    1.7566672 -0.015779846    2.4124845    5.0285115 -0.00089521371 
  404400    1.6954189 -0.0092176819    2.4983306    5.0291586 -0.0047652104 
  404600     1.753697 -0.0072506405    2.4082181    5.0283243 -0.0015206304 
  404800    1.7487354 -0.0048105899    2.4142131    5.0293261 0.0021727455 
  405000    1.8054922 -0.0033677021    2.3273147    5.0289026 0.0038430953 
  405200    1.7762342 -0.004110806    2.3729844    5.0299953 -0.00091945549 
  405400    1.7683283 -0.0042612519    2.3851861    5.0302021 -0.0038713964 
  405600    1.7496445 -0.0038164609    2.4128382    5.0303073 -0.0013216215 
  405800    1.7680901 -0.0021268601    2.3838632    5.0306568 0.0020092662 
  406000    1.7714127 -0.0051427376    2.3818752    5.0306307 0.0030446179 
  406200    1.7338708 -0.0053722664    2.4390524    5.0313338 -0.0016063576 
  406400    1.7658758 -0.0058983649    2.3909233    5.0306279 0.0084155763 
  406600    1.6942643 -0.0048919199     2.498082     5.031506 -0.0078623471 
  406800     1.748053 -0.0051482653    2.4176161     5.031369  0.001917084 
  407000    1.7146105 -0.001153284      2.46447     5.032115 -6.5818014e-05 
  407200    1.7359059 -0.0064365497    2.4374193    5.0316854 0.0030939025 
  407400    1.7225683 -0.0026757404    2.4541574    5.0322022 0.00043180917 
  407600     1.778078 -0.0033849905    2.3716173    5.0321165 0.0053802707 
  407800    1.7245096 -0.0037212074    2.4531053    5.0330131 0.0017604966 
  408000    1.7032894 -0.005465846    2.4869964    5.0333677 -0.0047877835 
  408200    1.7358164 -0.0034623757    2.4364868     5.033593 0.0011153779 
  408400    1.7461849 -0.0031375861    2.4214428    5.0344077 -0.0019920217 
  408600    1.7977645 -0.0051006699    2.3452478    5.0335252 0.0027098761 
  408800    1.7232597 -0.0044364498    2.4573588    5.0346786 0.0021146234 
  409000    1.7447946 -0.0068856012    2.4268479    5.0339819 -0.0034607379 
  409200     1.712875 -0.0059227897    2.4743455    5.0346208 -0.0021272743 
  409400    1.7658461 -0.0081656091    2.3970553    5.0344482 -0.0013657682 
  409600    1.7605102 -0.0088417151    2.4071316    5.0358542 0.0035569106 
  409800    1.7737678 -0.010680866    2.3884178    5.0351636 -3.6165389e-05 
  410000    1.8089249 -0.0046766667    2.3298865    5.0353083 0.0021485472 
  410200    1.7526665 -0.0049120322    2.4146211    5.0355222 0.0013575275 
  410400    1.7828123 -0.0033541919    2.3675846    5.0352073 0.0046971205 
  410600    1.8042093 -0.0058336333    2.3382815    5.0354815 -0.0022622765 
  410800    1.7385009 -0.0083532626    2.4398658    5.0361029 0.00062440333 
  411000    1.7416353 -0.005357185     2.433149    5.0370781 0.0036194003 
  411200    1.7987643 -0.0060089973    2.3478389     5.036706 0.0024351722 
  411400     1.727144 -0.0021269757    2.4520563    5.0375051 -0.0073393053 
  411600     1.770435 -0.0052148148    2.3892702    5.0364888 0.0049612041 
  411800    1.7508534 -0.0025173793    2.4157478    5.0363271 -0.0025562482 
  412000    1.7524599 -0.0082792006    2.4200128    5.0372372 0.0025624466 
  412200    1.6698559  -0.01023953    2.5470104    5.0385186 -0.0021758227 
  412400    1.7901428 -0.0083835926    2.3644298    5.0380056 0.0040985275 
  412600    1.7623222 -0.0041801121    2.4026951     5.038794 -0.0010974518 
  412800    1.7724677 -0.0061755967    2.3894692    5.0387725 -0.00034628192 
  413000    1.7531594 -0.0071089261    2.4194932    5.0389359 -0.003370692 
  413200     1.747537 -0.005543373    2.4267826    5.0393674 0.0010692343 
  413400    1.7277773 -0.011168265    2.4625913    5.0399475 0.0037920479 
  413600    1.8114584 -0.0093870606     2.335389     5.039896 -0.0014325907 
  413800    1.7177984 -0.0098148795    2.4768921    5.0406515 0.00049844747 
  414000    1.7460979 -0.0077892914    2.4324607    5.0406435 -0.00051970139 
  414200    1.7376692 -0.0057926222    2.4439982    5.0415499 0.00056158904 
  414400    1.7066444 -0.0068631829    2.4917289    5.0417294 -0.0036044685 
  414600    1.7526093 -0.0077784467    2.4250679    5.0430169 -0.00072465528 
  414800    1.7589631 -0.008196067    2.4167625     5.043813 0.0026422977 
  415000    1.7701467 -0.0055845282    2.3970163    5.0434334 0.0018487477 
  415200     1.762633 -0.0057738127    2.4089665    5.0439373 -0.0062310419 
  415400     1.669859 -0.007841498    2.5508197    5.0447307 -0.0011268362 
  415600    1.8443127 -0.0084991863    2.2895798    5.0441964  0.003500694 
  415800    1.7620983 -0.0075204686    2.4133512    5.0457744 -0.0016563863 
  416000     1.747574 -0.0046850931    2.4326221    5.0461206 -2.2461749e-05 
  416200    1.7897241 -0.0095244991    2.3736993    5.0455068 0.0010746634 
  416400    1.8081762 -0.011182965    2.3490556    5.0468493 0.0018046159 
  416600    1.7001953 -0.0092604828    2.5089338     5.046875 0.0021367289 
  416800    1.8184707 -0.0070052243    2.3298376    5.0472321  0.008275482 
  417000    1.8371443   -0.0115415    2.3052302    5.0460648  -0.00733543 
  417200    1.7383479 -0.011707326    2.4540598    5.0467137 -0.0024371547 
  417400       1.7128 -0.007886965    2.4885143    5.0467131 -0.00046775148 
  417600    1.8158865 -0.011677552    2.3374036    5.0462541 0.0055755715 
  417800    1.7830374 -0.0096307251    2.3859331    5.0476165 0.0013502924 
  418000    1.7066112 -0.010016107     2.501892    5.0486897 0.0028429503 
  418200    1.7625773 -0.0061803601    2.4142441    5.0487251 0.0015584081 
  418400     1.743292 -0.0042913241    2.4415558    5.0490328 0.0028921226 
  418600    1.7541596 -0.0057556547     2.426836    5.0491304 0.0021254949 
  418800    1.7551507 -0.0085752839    2.4283683    5.0493279 -0.0020365187 
  419000    1.7201415 -0.0048546375    2.4785012    5.0507313  0.003895193 
  419200    1.6646023 -0.0042833825    2.5611212    5.0507148 0.0064526807 
  419400    1.7551806 -0.0072766769    2.4279708    5.0502738 -0.0010519467 
  419600    1.7596194 -0.0023397846    2.4170694    5.0509594 -0.0027127379 
  419800    1.7355492 -0.0036602071    2.4547006    5.0512087 0.0038052518 
  420000    1.7780591 -0.0050464859    2.3921606    5.0509699 0.0030401121 
  420200    1.7828974 -0.0050680349    2.3853167    5.0513531 -0.00017870179 
  420400     1.733058 -0.004751333    2.4601089    5.0517935  0.001834849 
  420600    1.7550514  -0.01076202    2.4328161    5.0514402 -0.0015747898 
  420800    1.7721702 -0.0050502094    2.4016662    5.0516491 -0.0063130663 
  421000    1.7497618 -0.0094748027    2.4398218    5.0518083 0.0001506322 
  421200    1.7687208 -0.0096104173    2.4116769    5.0519319 0.0032880577 
  421400    1.7410067 -0.0048638603    2.4496672    5.0531479 -0.00027819306 
  421600    1.7988783 -0.0097149755    2.3675335    5.0528653 -0.000620845 
  421800    1.7747741 -0.0073602132    2.4016606    5.0532347 0.0019771785 
  422000    1.7566828 -0.0051368164    2.4268837    5.0535771 0.0022100242 
  422200    1.7138787 -0.0049767306     2.491228    5.0539531 -0.0066065471 
  422400    1.7952392 -0.0055305991    2.3692213    5.0532854 0.0010383305 
  422600    1.7645018 -0.0058309616    2.4164011    5.0541146 0.0015577004 
  422800    1.7919545 -0.0044475807    2.3744385    5.0546646 0.0023429468 
  423000    1.7509446 -0.0017916795    2.4340933     5.055535 -0.00067619948 
  423200    1.7266948 -0.0060062125    2.4740584    5.0549549 0.0031100006 
  423400    1.7482426 -0.0096350284    2.4460482    5.0555985 -0.0030499239 
  423600    1.7634925 -0.0068004182    2.4202963    5.0555283 0.0022184704 
  423800    1.7796496 -0.0098685508     2.399229    5.0555991 0.0024661295 
  424000    1.7368642 -0.010170112    2.4639709    5.0559391 -0.0042525605 
  424200    1.7748069 -0.0069868125    2.4043176    5.0563142 0.0042685215 
  424400    1.7802863 -0.0056367044    2.3946335    5.0561893 -0.0017326154 
  424600    1.7345422 -0.006474585    2.4647201     5.056905 -1.4703216e-05 
  424800    1.8025794  -0.00502886    2.3612087    5.0567715 0.0092824418 
  425000    1.7852436 -0.0064374958    2.3890467    5.0572288 -0.0022246694 
  425200    1.7956763 -0.0079982368    2.3747992    5.0570506 -0.0012250537 
  425400    1.7237616 -0.0091464904    2.4842259    5.0575878 0.0020546212 
  425600    1.7341678 -0.0060267808    2.4656364    5.0577082 -0.00045316496 
  425800    1.7502929 -0.0089276188     2.444019    5.0573485 -0.0018427215 
  426000    1.8381807 -0.0070823753    2.3099545    5.0568011 -0.00058557451 
  426200     1.783536 -0.006038533    2.3909576    5.0569802 -0.0031285518 
  426400    1.7473937 -0.0032518914    2.4420627    5.0567243 0.0041488504 
  426600    1.7701103 -0.0041410882     2.409408     5.057214 -0.0026620934 
  426800    1.7914035 -0.0062004764    2.3797953    5.0574429 -0.00071462905 
  427000    1.8264915 -0.0046683229    2.3248215    5.0565695   0.00137489 
  427200    1.6880508 -0.0024275673     2.531435    5.0580145 -0.0052616187 
  427400    1.7815182 -0.0030783137    2.3921007    5.0580606 -0.00057306262 
  427600    1.7576077 -0.0037715024    2.4286146     5.058059 -0.00053688801 
  427800     1.746937 -0.0039570963    2.4450856    5.0583577 -0.006011829 
  428000    1.7376441 -0.003227154    2.4585731    5.0586527 0.00053778909 
  428200    1.7518169 -0.0047218119    2.4390206    5.0588389 7.4730801e-05 
  428400     1.748159 -0.0064546287    2.4466126     5.059218 -0.00098308564 
  428600    1.7788002 -0.00074160417    2.3951836     5.059408 0.0058411161 
  428800    1.7923541 -0.0031486185    2.3772592     5.059383 -0.0021869259 
  429000    1.7622373 0.0022905463    2.4192557    5.0616982 0.0016573519 
  429200     1.726153 -0.0031885041    2.4778369    5.0607394 0.00047433544 
  429400    1.7645725 -0.0076663899    2.4244351    5.0604192 0.0021762189 
  429600    1.7483887 -0.0030995262    2.4452774    5.0615821 0.0018964325 
  429800    1.7703608 -0.0029904938    2.4113237    5.0606555 0.0033186119 
  430000    1.8288186 -0.0050016961    2.3258028    5.0607039 0.0006189969 
  430200    1.7200987 -0.0065337725    2.4913996    5.0618864 -0.0029858079 
  430400    1.7538981 -0.0051552531    2.4391746    5.0616776 0.00052887949 
  430600    1.8156733 -0.0041392186    2.3458056    5.0618751 0.0014637539 
  430800    1.7614846 -0.006342567    2.4297787    5.0624604 -0.0014617707 
  431000    1.8253071 -0.004627217    2.3325277    5.0625423 0.0051097765 
  431200    1.7999085 -0.0038008633    2.3697537     5.062543 5.0466008e-05 
  431400    1.7080886 -0.0047321751    2.5089431    5.0632382 0.0008232233 
  431600      1.80487 -0.004958596    2.3635978    5.0626627  0.001072212 
  431800    1.8014001 -0.0061497741    2.3704151    5.0630902  0.004188766 
  432000    1.7797631 -0.0055570653    2.4020375    5.0628892 0.0026803134 
  432200    1.7679941 -0.0059104693    2.4203516    5.0632178 0.0016664029 
  432400    1.7343303 -0.0051855556    2.4691909    5.0623476 0.0023314375 
  432600    1.7683057 -0.0062687888    2.4194968    5.0624716 0.0016617907 
  432800    1.7920298 -0.001711214    2.3795894    5.0626646 -0.0032264616 
  433000     1.793801 -0.005036338    2.3803303    5.0627339 0.0061477673 
  433200    1.7629735 -0.0046648324    2.4266508    5.0632407 0.00024606657 
  433400    1.7578879 -0.0029489147    2.4334086    5.0640954 -0.00066288107 
  433600    1.7254054 -0.0034792087    2.4838262     5.065318 -0.0034256407 
  433800    1.7379456 -0.0077229813    2.4687191    5.0647546 -0.0015322319 
  434000    1.7315564 -0.0050326411    2.4761447    5.0652984 0.00094393213 
  434200    1.7523938 -0.0054602289    2.4464262    5.0663706 0.0056353811 
  434400    1.7744701 -0.0045213924    2.4125166     5.066474 0.00099973038 
  434600    1.7077668 -0.0030222906    2.5116466    5.0671695 -0.0025546721 
  434800    1.7565542 -0.0096764832    2.4460166    5.0679776 0.00057602367 
  435000    1.7876537 -0.0068860854    2.3970426    5.0683867 0.0067345807 
  435200    1.7448211 -0.0065097562    2.4613799    5.0689294 0.0030681042 
  435400    1.7675371 -0.0075247711    2.4284323    5.0689994 -0.0010290026 
  435600    1.7528349 -0.0075759934    2.4515634    5.0700528 0.00015995704 
  435800    1.7961818 -0.0014426681    2.3813655    5.0709298 -0.0016245681 
  436000     1.729294 -0.0065704615    2.4867075    5.0709339 -0.00093531669 
  436200    1.7272083 -0.004734677    2.4874001    5.0703375 -0.00039884543 
  436400    1.7802636 -0.002837746    2.4061783    5.0704991 -0.0016233281 
  436600    1.8090491 -0.0042788304    2.3636425    5.0696481 0.00073243949 
  436800    1.7961682 -0.0068830327    2.3862517    5.0703553 0.0073240236 
  437000     1.786634 -0.0059526296    2.4002409    5.0709908 0.0017245701 
  437200     1.731758 -0.0098621019     2.487517    5.0721433 -0.0022755944 
  437400    1.6858073 -0.0094254883     2.556449    5.0726693 -0.0049415988 
  437600     1.780321 -0.0059114055    2.4105351    5.0718682 0.00034121228 
  437800    1.7818993 -0.0080075014    2.4109519    5.0725535 0.0014675527 
  438000    1.7365766 -0.007873233    2.4788995    5.0727337 -0.00043269113 
  438200    1.7834292 -0.0062209688    2.4072957    5.0729759 -0.0020717008 
  438400    1.7563108 -0.0014129914     2.442377     5.072237 0.0061657147 
  438600    1.7230673 -0.0049197775    2.4961286     5.072677 -0.003125429 
  438800    1.7475224 -0.0068829807    2.4616088    5.0728322 -0.0021696814 
  439000    1.7149778 -0.0073693878    2.5113463    5.0733255 0.00050407184 
  439200    1.7388075 -0.0070132291    2.4749918    5.0730283 -0.006160539 
  439400    1.8108202 -0.0020456687    2.3628616    5.0737538 0.0044571274 
  439600    1.8175102 -0.011821828    2.3631108    5.0742498 0.0030063291 
  439800    1.7742004 -0.012286575    2.4289199    5.0747081 -0.00054277174 
  440000    1.6974216 -0.012316712    2.5442919    5.0750213 -0.0010144032 
  440200    1.7658305 -0.010085223    2.4399847    5.0754346 0.0046099052 
  440400    1.6934828 -0.010271261    2.5485056    5.0753795 -0.001556667 
  440600    1.7707185 -0.0078164749    2.4302336    5.0752754 -0.0019831946 
  440800    1.7286155 -0.0065894776    2.4925485    5.0757393 -0.0016652977 
  441000    1.7366565 -0.0062721585      2.48047    5.0760251 0.0019486631 
  441200    1.7686487 -0.0041840692    2.4306129     5.076186  0.003490529 
  441400    1.7615582 -0.0060178024    2.4436209    5.0767376 0.0031753894 
  441600    1.7983134  -0.01201243    2.3942854    5.0764735 0.0020434975 
  441800    1.7149882 -0.0068671804    2.5151867    5.0776837 -0.0017657389 
  442000    1.7218065 -0.0064522672    2.5043657    5.0774926 -0.0027072034 
  442200    1.7809431 -0.0055735284    2.4145022    5.0771052 0.00016856748 
  442400    1.7897406 -0.0057803209    2.4020942    5.0776707 -0.0030436023 
  442600    1.8060075  -0.00479906    2.3771394     5.078068 0.0023967682 
  442800    1.7854734 -0.0048975464    2.4089194    5.0789857 0.00051675542 
  443000    1.7911826 -0.0015241315      2.39668     5.078673 3.8159166e-05 
  443200    1.7440771 -0.005102303    2.4711254    5.0789677 0.0015210164 
  443400    1.7399756 -0.005800268     2.479049    5.0800486 -0.0027922713 
  443600    1.7650354 -0.0046252937    2.4404438    5.0801624 0.0017376243 
  443800    1.7686586 -0.0026831997    2.4333429    5.0804319 0.0018599838 
  444000     1.737415 -0.0037033708    2.4812409     5.080501 -0.0023412856 
  444200    1.7809269 -0.0033974832    2.4161383    5.0808932 0.0023340018 
  444400    1.7223632 -0.0048089969    2.5055551    5.0811594 -0.0029834204 
  444600    1.7416735 -0.0034149953    2.4752182    5.0811468 4.587293e-05 
  444800     1.748412 -0.004395177    2.4665529    5.0815968 0.0040332952 
  445000    1.7194337 -0.0075922987    2.5131139    5.0815459 -0.0044915669 
  445200    1.7283454 -0.0037278562    2.4962121    5.0818599 0.00082682896 
  445400    1.7165823 -0.0064888657    2.5172372    5.0825007 0.0074852422 
  445600    1.7453341 -0.0068575248    2.4748999    5.0828702 0.0001575415 
  445800    1.7456718 -0.0041224936    2.4714009    5.0826121 -0.0025106424 
  446000    1.7856335 -0.0036215316    2.4115711    5.0831533 0.0024177908 
  446200    1.7321821 -0.0084634284    2.4965665    5.0832268 0.00046195316 
  446400    1.7556009 -0.006802516     2.460086    5.0834928 0.0014254191 
  446600    1.7727347 -0.0029437516    2.4311961    5.0841313 0.0015998764 
  446800    1.7579754 -0.003137272    2.4539791    5.0846085 -0.00058827453 
  447000    1.7603292 -0.0037857279    2.4511152    5.0846227 -0.0016932948 
  447200    1.7543521 -0.0050280358    2.4613499    5.0846602 -0.0024484104 
  447400     1.770895 -0.0036474708    2.4352886    5.0847638 0.0017682925 
  447600    1.7914667 -0.0043432215    2.4052785     5.084878 -0.0010672686 
  447800    1.7953069 -0.0047473312    2.4003442     5.085293  0.003168208 
  448000    1.8008946 -0.0047624637    2.3924105    5.0857156 0.0018647704 
  448200    1.7903392 -0.0057846206    2.4096796    5.0861487 0.0053772988 
  448400    1.8020972 -0.0031983575    2.3901878    5.0868588 0.0021323973 
  448600    1.8092791 -0.0051746264     2.381366    5.0868204 -0.0043940502 
  448800    1.8352865 -0.003851187     2.341996    5.0877377 -0.0036108765 
  449000    1.7844824 -0.0044542052    2.4176301    5.0866551 0.0024604086 
  449200    1.8272466 -0.0035146617    2.3522588    5.0862918 0.0029993075 
  449400    1.7433476 0.0087665678    2.4663207     5.086939 -0.00096179243 
  449600    1.7799455 -0.0046120548     2.424767     5.086837  0.002017955 
  449800    1.7831317 -0.0044850144    2.4201933    5.0871638 -0.00065031042 
  450000    1.7523203 -0.0063171688    2.4680402    5.0870175 0.0030984381 
  450200    1.8285203 -0.00084483315    2.3491512    5.0877622 0.0048330219 
  450400    1.8173213 -0.0069057645    2.3715868    5.0873587 9.1195221e-05 
  450600    1.7914122 -0.0064651635    2.4101904    5.0875864 -0.0018266403 
  450800    1.7168122 -0.0081646814    2.5241926    5.0881248 -0.0039307308 
  451000    1.6857163 -0.0094998914    2.5726066    5.0886163 -0.00046723661 
  451200    1.7723896 -0.0087143171    2.4412448    5.0878924 0.0025532459 
  451400    1.7658775 -0.0078422985    2.4506678    5.0884311 0.00063942052 
  451600    1.7159085 -0.010369328    2.5288368    5.0892105 -0.0041715677 
  451800    1.7586516 -0.011936602    2.4671729    5.0900161 0.0075761415 
  452000    1.8045204 -0.0068327528    2.3932857    5.0899526 0.0057348968 
  452200    1.7649646 -0.0033518074    2.4499813    5.0908673 0.00024260501 
  452400    1.7973485 -0.0033323212    2.4014183    5.0908409 -0.0082945452 
  452600    1.8325133 -0.0040885867    2.3488649    5.0902144 0.0016342822 
  452800    1.7438047 -0.0050974633    2.4837279    5.0911669 -0.0024315846 
  453000    1.7823802 -0.0030745214    2.4237525    5.0910076  0.002312852 
  453200    1.8345535 -0.0043670554    2.3472352    5.0913628 -0.0019970395 
  453400    1.8635326 -0.0038780573    2.3034697    5.0915023 0.0052181974 
  453600    1.7928103 -0.002376872     2.407722    5.0913009 0.0055560102 
  453800    1.7729133 -0.0029970869    2.4389586     5.092108 0.0044912581 
  454000       1.7843 -0.0043124999    2.4231829    5.0920763 -0.0013013165 
  454200    1.8200021 -0.0053393787    2.3711616    5.0925163 -0.0028197104 
  454400    1.8200914 -0.0029821139    2.3685084    5.0923541 0.0020147392 
  454600    1.7695962 -0.0029137922    2.4452598    5.0935229  0.002222009 
  454800    1.7569714 -0.0055466758    2.4666083    5.0933242 0.00048805893 
  455000    1.7998794 -0.0085093025    2.4056454    5.0936828 2.1128684e-06 
  455200    1.7662863 -0.0068108754    2.4547257    5.0941329 0.0023230432 
  455400    1.7735169 -0.0055920757    2.4429809    5.0944396 0.0045500251 
  455600    1.7395477 -0.0042342461    2.4929735     5.094898 0.0035674386 
  455800    1.7893521 -0.003612045    2.4180053     5.095168 0.0007315326 
  456000    1.7688559 -0.0074812706    2.4530359    5.0956225 -0.0023872246 
  456200     1.752372 -0.0037065564    2.4745803    5.0962456 -5.6551033e-05 
  456400    1.7415444 -0.0051240357    2.4932905    5.0973167 0.0023657515 
  456600    1.7610254 -0.0042838573     2.462963    5.0970154 -0.0021402771 
  456800    1.7807425 -0.0048479299    2.4333589    5.0963869 -0.00049305801 
  457000    1.8211784 -0.0038755661    2.3717169    5.0962977 0.0037364773 
  457200    1.7676137 -0.0030573404     2.452324    5.0974733 -0.0023866163 
  457400    1.7520816 0.0033955118    2.4691787     5.097511 0.0014308002 
  457600      1.79441 -0.0038532103    2.4124909    5.0969901 -0.000241538 
  457800    1.7411111 -0.0024714022    2.4916237    5.0976532 -0.0056970166 
  458000    1.8088187 -0.0016023283    2.3887332    5.0970701  2.23298e-05 
  458200    1.7841131 -0.0017320969    2.4266032    5.0977969 0.00087889652 
  458400    1.8500712 -0.0023317272    2.3278599    5.0972713 0.00082346351 
  458600     1.767018 -0.0055936271    2.4562624     5.097983 0.0017025891 
  458800    1.8199253 -0.0054647144    2.3768444    5.0979586 0.0011086048 
  459000    1.7933712 -0.0058304652    2.4167562    5.0977218 6.279109e-05 
  459200    1.7349845 -0.0040654038    2.5035023    5.0987591 -0.0016684858 
  459400    1.7543569 -0.003681231    2.4738851    5.0985496 -0.0016203779 
  459600    1.7593174 -0.0023928306     2.465358    5.0987425 -0.0039030529 
  459800    1.7186286 -0.0039896657    2.5287065    5.0995349 -0.00048523536 
  460000    1.7169536 -0.0024483769    2.5300867     5.099947 -0.00076367887 
  460200    1.8025926 -0.0043671654    2.4035575    5.0998019 0.0044392379 
  460400    1.7568849 -0.0077893884    2.4757856    5.1001292 0.0041210467 
  460600    1.7872608 -0.0075216229    2.4295194    5.0996394 -0.00093648204 
  460800    1.8391588 -0.0034109704    2.3473047     5.099288 0.0054887914 
  461000    1.8049306 -0.0047304013    2.4008718    5.1002557 0.0030692135 
  461200    1.7977862 -0.0072392171    2.4144179    5.1005893  0.002999238 
  461400    1.7943577 -0.0060702165    2.4182025    5.1004063  0.003066334 
  461600    1.8166192 -0.0060088724    2.3858975    5.1015145 0.0013978692 
  461800     1.756199 -0.0043896559    2.4757711    5.1024869 0.0010654019 
  462000    1.8035289 -0.0053524374    2.4054873     5.102149 -0.0031774269 
  462200    1.7680752 -0.0049677665    2.4585018    5.1024322 -0.00037437364 
  462400    1.8015896 -0.0039121324    2.4076191    5.1028157 -0.004245254 
  462600    1.7805545 -0.0037622513    2.4394794    5.1033115 0.00044432524 
  462800    1.7309288 -0.0041843102    2.5127328    5.1017945 0.0020042773 
  463000    1.7660444 -0.0038473698    2.4604308    5.1024389 0.0035467291 
  463200    1.8539674 -0.0038250618    2.3284828    5.1022381 0.0022535622 
  463400    1.8321812 -0.0049160415    2.3630303    5.1030548 0.0016890021 
  463600    1.7375256 -0.0058795838    2.5067826    5.1040322 -0.0019889749 
  463800    1.7513421 -0.0056127291    2.4853368     5.103553 -0.0014964646 
  464000    1.7688827 -0.0050063472      2.45993    5.1050315 -0.00040271162 
  464200    1.8072598 -0.0045861677    2.4012519    5.1042694 -0.00021735885 
  464400    1.7958734 -0.0054971385    2.4196786    5.1047264 -0.00018598046 
  464600    1.8108536 -0.0036042926    2.3952892    5.1046729 0.0040967503 
  464800    1.7973386 -0.0064707505    2.4186806    5.1049498 0.00052728757 
  465000      1.75798 -0.0041061745    2.4754669    5.1051344 -0.00041345966 
  465200    1.7194024 -0.0053968831    2.5357514    5.1063319 -0.005437071 
  465400    1.7637898 -0.0018392829    2.4651186    5.1057571 0.0036382663 
  465600    1.8201793 -0.0012528796    2.3804166    5.1061233 0.00042597533 
  465800    1.7612847 -0.0054618334    2.4722919    5.1055548 -0.0019396309 
  466000    1.8414347 -0.0051787377    2.3521116    5.1057368 -0.00015822281 
  466200    1.7615005 -0.0067124669    2.4736514    5.1059871 -0.00032437114 
  466400    1.7565394 -0.0058918123    2.4809714     5.106695 0.00079269448 
  466600    1.7516698 -0.0033185921    2.4858863    5.1068876 0.0025977566 
  466800    1.8378056 -0.0075683319    2.3609651    5.1067638 0.0069152914 
  467000    1.8244995 -0.0066971739    2.3801868    5.1069216 -0.00021860977 
  467200    1.8182062 -0.005450422    2.3879613    5.1065144 0.0017032465 
  467400    1.7725277 -0.0058709626    2.4573601    5.1070579 4.8007235e-06 
  467600    1.7444613 -0.0047550301    2.4986386    5.1074038 -0.0035163115 
  467800    1.8254203 -0.0069124783    2.3793054    5.1072044 -5.780355e-05 
  468000    1.8449258 -0.0063356668    2.3494573    5.1071558 0.0066421794 
  468200    1.8183711 -0.0053176555    2.3885484    5.1074813 0.00020660166 
  468400    1.8132503 -0.002525061    2.3937329    5.1077865 -0.0035918808 
  468600    1.7427884 -0.0054303955    2.5032323    5.1088157 0.0043346966 
  468800    1.8018904 -0.0079492283    2.4170593    5.1086694 0.0025068359 
  469000    1.7760354 -0.008853038    2.4584641     5.110435 0.00056700675 
  469200     1.799747 -0.0044628422    2.4180815    5.1099669 0.00029005863 
  469400    1.8071059 -0.0050495931    2.4077753    5.1100989 -0.0016011993 
  469600    1.7669075 -0.0038726296    2.4682594    5.1115354 0.0002442833 
  469800    1.8068268 -0.0023814872    2.4063111    5.1108846 0.0056962967 
  470000    1.7349003 -0.0076710585    2.5200994    5.1116244 -0.0016365703 
  470200    1.7903187 -0.0070185406    2.4361045    5.1113088 -0.0048912064 
  470400    1.7550509 -0.006370375    2.4889014    5.1119164 0.00011363572 
  470600    1.8186908 -0.0096261021    2.3968044    5.1119078 0.0072316295 
  470800    1.7859502 -0.0078447787    2.4445846    5.1124179 7.8960435e-05 
  471000    1.7967903 -0.0088133013     2.429186    5.1122913 -6.7583475e-05 
  471200    1.7805737 -0.0065965115    2.4518117    5.1128383 -0.00076488716 
  471400    1.7769767 -0.0052833939    2.4558022     5.112753 -0.0051854627 
  471600    1.8174104 -0.0039477059    2.3946559    5.1135194 0.0021708741 
  471800    1.7856762 -0.0049933877    2.4437181    5.1139924 0.0031020454 
  472000    1.7441533 -0.00081003813    2.5021433     5.114392 -0.0020705657 
  472200    1.7792212 -0.0046864306    2.4536254    5.1145358 0.00078080521 
  472400    1.7290995 -0.004767083    2.5291294    5.1148677 0.0030925452 
  472600    1.7778574 -0.0030736004    2.4544066    5.1148867 -0.00095507479 
  472800    1.7782683 -0.0045659453    2.4554138     5.115017 -0.002286167 
  473000    1.7692673 -0.0051833108    2.4705551    5.1160559 -0.003983947 
  473200    1.7611521 -0.0059121785    2.4835071     5.116121 0.0020197236 
  473400    1.7629221 -0.0035939249    2.4793562    5.1169401 -0.00061355092 
  473600    1.8553366 -0.0035870869    2.3403866    5.1164311 -0.00012435295 
  473800     1.778349 -0.0020788907    2.4550743    5.1172855 0.00018071918 
  474000    1.8146509 -0.0045238016    2.4029722    5.1171253 0.0029162106 
  474200    1.7216833 -0.0070484971    2.5454188    5.1177649 -0.0015921289 
  474400      1.75306 -0.0077941489    2.4994497    5.1180582  0.008829735 
  474600    1.7367961 -0.0080098365    2.5241934    5.1182199 -0.0021653919 
  474800     1.741703 -0.0062325277    2.5151988    5.1183541 -0.007844456 
  475000    1.8339998 -0.0030717864    2.3745268    5.1191201 0.0087086603 
  475200    1.8541511 -0.003061385    2.3441865    5.1189807 0.00097389458 
  475400    1.7002396 -0.0036349428    2.5768197    5.1204529 -0.0040215525 
  475600    1.7595143 -0.0051694702    2.4890595    5.1199623  0.001230342 
  475800    1.7386052 -0.0074236993    2.5231034    5.1204264 0.0016823417 
  476000     1.842367 -0.0061015096    2.3663129    5.1204121 0.0017101469 
  476200    1.8083021 -0.0057061225    2.4177127    5.1211719 -0.0020708766 
  476400    1.7724525 -0.0058752504    2.4723766    5.1219574 0.0018722671 
  476600    1.7918345 -0.005283879    2.4432641    5.1224741 0.00079673986 
  476800    1.8487713 -0.0038051583    2.3566267    5.1226171 0.0021205511 
  477000    1.7625967 -0.0055708124    2.4878207    5.1229402 0.00093152627 
  477200     1.776848 -0.0018007865    2.4627987    5.1230394 -0.0044452004 
  477400    1.8009484 -0.00068121078     2.425412    5.1228789 0.0025874391 
  477600    1.7938035 -0.0049929837    2.4394191    5.1218699 -0.00025251687 
  477800    1.7537961 -0.0021015449    2.4968515    5.1222553 -0.0012483152 
  478000    1.7520974 -0.0020877232    2.4998207    5.1226934 0.0029294177 
  478200    1.7715499 -0.0044524701    2.4732215     5.122873 0.00037812167 
  478400    1.7974353 -0.0070861371    2.4371182     5.122917 0.00035750884 
  478600    1.7864504 -0.0073351377    2.4550289    5.1241213 -0.0017287105 
  478800    1.8098059 -0.0010988186    2.4121228    5.1224423  0.001384923 
  479000    1.8187378 -0.0058632606    2.4039673     5.122904  0.002091736 
  479200    1.7868393 -0.007883452    2.4548218    5.1239485 0.00089592989 
  479400    1.7546833 -0.0050001398    2.5007124    5.1245469 0.0048372013 
  479600    1.7420463 -0.0038885082    2.5194282    5.1254418 -0.0012044259 
  479800    1.7216863 -0.0021415379    2.5493483    5.1266059 -0.0034967594 
  480000    1.8228252 -0.0037628532    2.3991113    5.1262719 0.0020822521 
  480200    1.7734603  -0.00566206    2.4757132    5.1270171 -0.0029815426 
  480400    1.7961905 -0.011678899    2.4481172    5.1274582 0.0044517954 
  480600     1.787534 -0.0080427832    2.4580915    5.1280997 -0.0019825391 
  480800    1.7540078 -0.0075070796    2.5083097    5.1286253 -0.0012457593 
  481000    1.8201468 -0.0037026461    2.4054091    5.1286173 0.0054678628 
  481200    1.7878394 0.00010844257    2.4510213    5.1296382 0.00091961481 
  481400    1.8429881 -0.0035191405     2.371314     5.128926 0.00022628538 
  481600    1.8212387 -0.0044858455    2.4050045    5.1290653 0.00057631275 
  481800    1.7659468 -0.0045703044    2.4883412    5.1294803 0.0029822892 
  482000    1.7194794 -0.0043121613    2.5585605    5.1303411 -0.0063512422 
  482200    1.8024561 -0.0065475128    2.4361035     5.129963 -0.005206978 
  482400    1.7583276 -0.0065378447    2.5035172    5.1312737 0.0015658081 
  482600    1.8062502 -0.0059390997    2.4321178    5.1322699 0.00047046959 
  482800    1.8232961 -0.006046336    2.4060695    5.1316522 9.7203871e-06 
  483000    1.7263899 -0.0046215531    2.5501321    5.1319564 0.00093664171 
  483200    1.7895116 -0.0058127173    2.4571979     5.132399 -0.0012463243 
  483400    1.8387844 -0.0054887337    2.3826016    5.1319461 0.0024920333 
  483600    1.7848913 -0.0078433425    2.4665002    5.1327485 0.00076315171 
  483800    1.8028204 -0.004408712    2.4355155    5.1320595 -0.0025184878 
  484000    1.7384173 -0.0041792843    2.5321768    5.1324626 0.0034377786 
  484200    1.7639768 -0.0057268864    2.4954391    5.1324702 0.0029509925 
  484400    1.7345685 -0.0036778429    2.5366258     5.131647 -0.002576261 
  484600    1.7360888 -0.005129968    2.5361956    5.1320423 -0.0016316028 
  484800    1.7611603 -0.0072976296    2.5008079    5.1320486 0.0022381495 
  485000    1.7647357 -0.0071564475    2.4955164     5.132255 -0.0079893798 
  485200    1.8651873 -0.0044021634    2.3420693    5.1320568 0.0014210245 
  485400    1.7943975 -0.0056695855    2.4497352    5.1323993 -0.00030414953 
  485600    1.7830877 -0.0046226225    2.4660786    5.1328455 0.0040059629 
  485800     1.735254 -0.0040795421    2.5381771    5.1338237 -1.2198323e-05 
  486000    1.7732493 -0.0063819777    2.4830872     5.133355 0.0036244121 
  486200    1.8029827 -0.0054650271    2.4382621    5.1339929 0.0043999487 
  486400    1.7884579 -0.0044254271    2.4599335    5.1349432 0.0073430862 
  486600    1.7958768 -0.00045061722    2.4450451    5.1351445 0.0011102974 
  486800    1.7867822 -0.0068773883    2.4654798    5.1355271 0.0011749651 
  487000    1.7705539 -0.0086945407    2.4919111    5.1358282 -0.0024177786 
  487200    1.8274898 -0.0067051898    2.4048885    5.1360953 0.0024006862 
  487400    1.8257177 -0.0037925994    2.4049418    5.1364063 0.00012687516 
  487600    1.7703392 -0.0043625072    2.4884597    5.1363873 0.0065339606 
  487800    1.7653648 -0.0091185264     2.500802     5.136521 0.0028195597 
  488000    1.7306815 -0.0073251327    2.5519653    5.1375157 -0.0024318885 
  488200    1.8114725 -0.0079830346    2.4308855    5.1368176 0.0036438557 
  488400    1.8649061 -0.0061507736    2.3489742    5.1367918 0.00032518746 
  488600     1.797953 -0.0038102402    2.4480053    5.1378556 -0.0048249057 
  488800    1.8250111 -0.0048081963    2.4082475    5.1376378 0.0008986289 
  489000    1.7347978 -0.006072575    2.5462977    5.1392676 0.0013473663 
  489200    1.7071662 -0.0058395252    2.5875427    5.1393484 -0.0013802835 
  489400    1.7716008 -0.0048950513    2.4899513    5.1392364 0.0020239069 
  489600     1.811446 -0.0036407671    2.4296611    5.1398958 0.0070263878 
  489800    1.7514138 -0.0051567806     2.521107    5.1398865 -0.0037346385 
  490000    1.7974039 -0.0075466165    2.4544335    5.1397246 0.0041908598 
  490200    1.8024105 -0.0071076258    2.4470737    5.1403048 -0.00032369555 
  490400    1.8287121 -0.0079695772    2.4084894    5.1402631 0.0037985713 
  490600    1.7349731 -0.0057047462    2.5473249    5.1409253 -0.0038663581 
  490800    1.8244878 -0.0035436596    2.4107494    5.1406202 0.0046302164 
  491000    1.8152711 -0.0042813965    2.4249312    5.1402559  0.001435631 
  491200     1.726352 -0.005251577      2.56049    5.1416276 0.0018376799 
  491400    1.8316348 -0.0054777982    2.4022782    5.1409223 0.0023815743 
  491600    1.8941749 -0.00084777284    2.3045393      5.14151 0.0081393246 
  491800    1.7790694 -0.0050157629    2.4811432    5.1414968 0.0019765175 
  492000     1.841607 -0.0048321212    2.3870843    5.1413144 0.0048268488 
  492200    1.8028827 -0.0014813727    2.4424499    5.1420146 -0.00095100735 
  492400    1.8417295 -0.0066323606    2.3887632    5.1413764 0.0033066882 
  492600     1.820217 -0.0039499865    2.4187332    5.1417992 0.0016316205 
  492800    1.7830717 -0.0045421022    2.4753071    5.1421306 0.00040046414 
  493000     1.847822 -2.492042e-05    2.3738529    5.1422013 0.0013408711 
  493200    1.8174899 -0.0036255248    2.4231188    5.1424236  0.002490319 
  493400    1.7870618 -0.0042955216    2.4695028    5.1425508 0.00050714848 
  493600    1.7556055 -0.0041935136    2.5170185    5.1430412 0.0026035829 
  493800    1.8427735 -0.004037075    2.3864097    5.1431824 0.0018017799 
  494000    1.8398882 -0.0041651012    2.3911198    5.1434418 0.0019611842 
  494200    1.8191638 -0.0065831214    2.4243073    5.1431623 -0.003354994 
  494400    1.7254457 -0.0034675978     2.562392    5.1439558 -0.0019140965 
  494600    1.8111921 -0.0041655081    2.4343794     5.143709 0.00069295408 
  494800    1.7079496 -0.0057505425    2.5913451    5.1444135 -0.0097033609 
  495000    1.8659831 -0.010418537    2.3606485    5.1458119 -0.00095146012 
  495200    1.7958887 -0.0057491184     2.461688    5.1465066   0.00362845 
  495400    1.7410496  -0.00721942    2.5456677    5.1468571 0.0030816805 
  495600    1.8142887 -0.0067898228    2.4358829    5.1472275 0.0032557407 
  495800    1.8264339 -0.0037995839    2.4158832    5.1484137 0.0017384887 
  496000    1.7204839 -0.0031743271     2.573974    5.1483974 -0.00089007734 
  496200    1.8010685 -0.0046107294    2.4547619    5.1484792 0.0014903495 
  496400    1.7779313 -0.0023809949    2.4874383    5.1487216 -0.0012557994 
  496600    1.8104199 -0.0059046479    2.4422408    5.1486743 0.0032626872 
  496800    1.7948284 -0.0045933006    2.4647804    5.1491663 -0.00040990573 
  497000    1.7742816 -0.0049778272    2.4964117    5.1496302 0.0046470122 
  497200    1.6856837 -0.0032950424    2.6281273    5.1502929 -0.002663586 
  497400    1.7779895 -0.0086024173    2.4948967    5.1500458 0.00024806741 
  497600    1.7847354 -0.0059155697    2.4822819    5.1502245 -0.0036315293 
  497800    1.8753683 -0.0064109999    2.3460885    5.1493202 0.00098640859 
  498000     1.841686 -0.0030643905    2.3932064    5.1493225 0.0025298759 
  498200    1.8020166 -0.0028379076    2.4524564     5.149367 0.00056834838 
  498400    1.8071436 -0.0045000776    2.4464684    5.1493979  0.002737831 
  498600    1.8432223 -0.0060423132    2.3942784    5.1497182 0.0034546277 
  498800    1.8709472 -0.007505834    2.3550398    5.1505531 0.0006572205 
  499000    1.7968462 -0.0033197405    2.4625153    5.1511978  0.003121488 
  499200    1.7687934 -0.0066771629    2.5081593    5.1514563 -0.0044946869 
  499400    1.7899963 -0.0068522989    2.4768005    5.1516882 -0.00018697341 
  499600    1.7775568 -0.0074402999    2.4960503    5.1517133 -0.0026347338 
  499800      1.77001 -0.0047171993    2.5057298    5.1528094 0.0014804646 
  500000    1.8265422 -0.0049361928    2.4220001    5.1535563 0.0013190852 
  500064     1.828978 -0.0047860268    2.4185689    5.1539245 -0.0044008219 
Loop time of 99.4588 on 1 procs for 500000 steps with 825 atoms

Performance: 434350.635 tau/day, 5027.206 timesteps/s
97.6% CPU use with 1 MPI tasks x 1 OpenMP threads

MPI task timing breakdown:
Section |  min time  |  avg time  |  max time  |%varavg| %total
---------------------------------------------------------------
Pair    | 14.716     | 14.716     | 14.716     |   0.0 | 14.80
Bond    | 51.515     | 51.515     | 51.515     |   0.0 | 51.80
Neigh   | 14.98      | 14.98      | 14.98      |   0.0 | 15.06
Comm    | 2.554      | 2.554      | 2.554      |   0.0 |  2.57
Output  | 3.3659     | 3.3659     | 3.3659     |   0.0 |  3.38
Modify  | 10.437     | 10.437     | 10.437     |   0.0 | 10.49
Other   |            | 1.892      |            |       |  1.90

Nlocal:    825 ave 825 max 825 min
Histogram: 1 0 0 0 0 0 0 0 0 0
Nghost:    522 ave 522 max 522 min
Histogram: 1 0 0 0 0 0 0 0 0 0
Neighs:    538 ave 538 max 538 min
Histogram: 1 0 0 0 0 0 0 0 0 0

Total # of neighbors = 538
Ave neighs/atom = 0.652121
Ave special neighs/atom = 5.63636
Neighbor list builds = 29302
Dangerous builds = 0


# ----------------- Run Section -----------------

# The lines above define the system you want to simulate.
# What you do next is up to you.
# Typically a user would minimize and equilibrate
# the system using commands similar to the following:
#  ----   examples   ----
#
#  -- minimize --
# minimize 1.0e-5 1.0e-7 1000 10000
# (Note: Some fixes, for example "shake", interfere with the minimize command,
#        You can use the "unfix" command to disable them before minimization.)
#  -- declare time step for normal MD --
# timestep 1.0
#  -- run at constant pressure (Nose-Hoover)--
# fix   fxnpt all npt temp 300.0 300.0 100.0 iso 1.0 1.0 1000.0 drag 1.0
#  -- ALTERNATELY, run at constant volume (Nose-Hoover) --
# fix   fxnvt all nvt temp 300.0 300.0 500.0 tchain 1
#  -- ALTERNATELY, run at constant volume using Langevin dynamics. --
#  -- (This is good for sparse CG polymers in implicit solvent.)   --
# fix fxLAN all langevin 300.0 300.0 5000 48279
# fix fxNVE all nve  #(<--needed by fix langevin)
#  -- Now, finally run the simulation --
# run   50000
#  ---- (end of examples) ----

Total wall time: 0:01:39
