LAMMPS (5 Jun 2019)
OMP_NUM_THREADS environment is not set. Defaulting to 1 thread. (src/comm.cpp:88)
  using 1 OpenMP thread(s) per MPI task


# ----------------- Init Section -----------------

include "system.in.init"
        units lj
        atom_style angle
        pair_style hybrid lj/expand/twopiece 2.5 soft/shift 0.3 zero 1 morse 2.5
        bond_style hybrid harmonic
        angle_style hybrid harmonic
        special_bonds lj 0.0 0.0 0.0


# ----------------- Atom Definition Section -----------------

read_data "system.data"
  orthogonal box = (-20 -20 -20) to (20 20 20)
  1 by 1 by 1 MPI processor grid
  reading atoms ...
  1950 atoms
  scanning bonds ...
  1 = max bonds/atom
  scanning angles ...
  1 = max angles/atom
  reading bonds ...
  1925 bonds
  reading angles ...
  1850 angles
  2 = max # of 1-2 neighbors
  2 = max # of 1-3 neighbors
  4 = max # of 1-4 neighbors
  6 = max # of special neighbors
  special bonds CPU = 0.00611996 secs
  read_data CPU = 0.0365531 secs

# ----------------- Settings Section -----------------

include "system.in.settings"
       pair_coeff 2 2 lj/expand/twopiece 0.5 1 0.5 0.
        pair_coeff 3 3 lj/expand/twopiece 1.0 1 0.5 0.
        pair_coeff 4 4 lj/expand/twopiece 1.0 1 0.5 0.
        pair_coeff 3 4 lj/expand/twopiece 1.0 1 0.5 0.
        pair_coeff 2 3 lj/expand/twopiece 0.5 1 0.5 0.
        pair_coeff 2 4 lj/expand/twopiece 0.5 1 0.5 0.

        pair_coeff 5 5 soft/shift 1.5 0.2
pair_coeff 2 5 zero
pair_coeff 1 5 zero
pair_coeff 3 5 zero
pair_coeff 4 5 zero

        pair_coeff 8 8 lj/expand/twopiece 0.5 1 0.5 0.
pair_coeff 5 8 lj/expand/twopiece 0.5 1 0.5 0.
pair_coeff 2 8 zero
pair_coeff 1 8 morse 100 4 0.5
pair_coeff 3 8 zero
pair_coeff 4 8 zero
pair_coeff 6 8 zero
pair_coeff 7 8 zero

        pair_coeff 6 6 soft/shift 1.5 0.2
pair_coeff 2 6 zero
pair_coeff 1 6 zero
pair_coeff 3 6 zero
pair_coeff 4 6 zero
        pair_coeff 6 7 soft/shift 1.5 0.2

        pair_coeff 7 7 soft/shift 1.5 0.2
pair_coeff 2 7 zero
pair_coeff 1 7 zero
pair_coeff 3 7 zero
pair_coeff 4 7 zero

        pair_coeff 1 1 lj/expand/twopiece 0.5 1 0.8 0.
        pair_coeff 1 2 lj/expand/twopiece 0.5 1 0.8 0.
        pair_coeff 1 3 lj/expand/twopiece 0.5 1 0.8 0.
        pair_coeff 1 4 lj/expand/twopiece 0.5 1 0.8 0.


        bond_coeff 1 harmonic 1000 0.4
        bond_coeff 2 harmonic 1000 0.4
        bond_coeff 3 harmonic 1000 0.15

        angle_coeff 1 harmonic 20 180
        angle_coeff 2 harmonic 20 180
        angle_coeff 3 harmonic 20 180
        angle_coeff 4 harmonic 20 180


# ----------------- Run Section -----------------

include "system.in.run"
  compute bcomp all property/local btype batom1 batom2
  dump dxyz all atom 1000 poly.lammpstrj
  dump bdump all local 1000 bonddump.dump c_bcomp[1] c_bcomp[2] c_bcomp[3]

  thermo 200
  minimize 1.0e-6 1.0e-8 10000 100000
WARNING: Using 'neigh_modify every 1 delay 0 check yes' setting during minimization (src/min.cpp:168)
Neighbor list info ...
  update every 1 steps, delay 0 steps, check yes
  max neighbors/atom: 2000, page size: 100000
  master list distance cutoff = 2.8
  ghost atom cutoff = 2.8
  binsize = 1.4, bins = 29 29 29
  5 neighbor lists, perpetual/occasional/extra = 5 0 0
  (1) pair lj/expand/twopiece, perpetual, skip from (5)
      attributes: half, newton on
      pair build: skip
      stencil: none
      bin: none
  (2) pair soft/shift, perpetual, skip from (5)
      attributes: half, newton on
      pair build: skip
      stencil: none
      bin: none
  (3) pair zero, perpetual, skip from (5)
      attributes: half, newton on
      pair build: skip
      stencil: none
      bin: none
  (4) pair morse, perpetual, skip from (5)
      attributes: half, newton on
      pair build: skip
      stencil: none
      bin: none
  (5) neighbor class addition, perpetual
      attributes: half, newton on
      pair build: half/bin/newton
      stencil: half/bin/3d/newton
      bin: standard
Per MPI rank memory allocation (min/avg/max) = 10.37 | 10.37 | 10.37 Mbytes
Step Temp E_pair E_mol TotEng Press 
       0            0 -0.0012633546    668.42817    668.42691   -14.210806 
     175            0 -0.0016695257 0.0012938047 -0.000375721 -0.0036500765 
Loop time of 0.37289 on 1 procs for 175 steps with 1950 atoms

99.4% CPU use with 1 MPI tasks x 1 OpenMP threads

Minimization stats:
  Stopping criterion = energy tolerance
  Energy initial, next-to-last, final = 
         668.426907404 -0.000375720822616 -0.000375721004608
  Force two-norm initial, final = 106223 22.7365
  Force max component initial, final = 3958.08 1.57984
  Final line search alpha, max atom move = 0.0158244 0.025
  Iterations, force evaluations = 175 623

MPI task timing breakdown:
Section |  min time  |  avg time  |  max time  |%varavg| %total
---------------------------------------------------------------
Pair    | 0.12538    | 0.12538    | 0.12538    |   0.0 | 33.62
Bond    | 0.16337    | 0.16337    | 0.16337    |   0.0 | 43.81
Neigh   | 0.047381   | 0.047381   | 0.047381   |   0.0 | 12.71
Comm    | 0.0036403  | 0.0036403  | 0.0036403  |   0.0 |  0.98
Output  | 0          | 0          | 0          |   0.0 |  0.00
Modify  | 0          | 0          | 0          |   0.0 |  0.00
Other   |            | 0.03312    |            |       |  8.88

Nlocal:    1950 ave 1950 max 1950 min
Histogram: 1 0 0 0 0 0 0 0 0 0
Nghost:    425 ave 425 max 425 min
Histogram: 1 0 0 0 0 0 0 0 0 0
Neighs:    5853 ave 5853 max 5853 min
Histogram: 1 0 0 0 0 0 0 0 0 0

Total # of neighbors = 5853
Ave neighs/atom = 3.00154
Ave special neighs/atom = 5.84615
Neighbor list builds = 25
Dangerous builds = 0
  timestep 0.001
  velocity all create 3.0 49840
  fix   fxnvt all nvt temp 3.0 3.0 500.0
  run   500000
Neighbor list info ...
  update every 1 steps, delay 10 steps, check yes
  max neighbors/atom: 2000, page size: 100000
  master list distance cutoff = 2.8
  ghost atom cutoff = 2.8
  binsize = 1.4, bins = 29 29 29
  5 neighbor lists, perpetual/occasional/extra = 5 0 0
  (1) pair lj/expand/twopiece, perpetual, skip from (5)
      attributes: half, newton on
      pair build: skip
      stencil: none
      bin: none
  (2) pair soft/shift, perpetual, skip from (5)
      attributes: half, newton on
      pair build: skip
      stencil: none
      bin: none
  (3) pair zero, perpetual, skip from (5)
      attributes: half, newton on
      pair build: skip
      stencil: none
      bin: none
  (4) pair morse, perpetual, skip from (5)
      attributes: half, newton on
      pair build: skip
      stencil: none
      bin: none
  (5) neighbor class addition, perpetual
      attributes: half, newton on
      pair build: half/bin/newton
      stencil: half/bin/3d/newton
      bin: standard
Per MPI rank memory allocation (min/avg/max) = 10.35 | 10.35 | 10.35 Mbytes
Step Temp E_pair E_mol TotEng Press 
     175            3 -0.0016695257 0.0012938047    4.4973166  0.087709298 
     200    1.2916859 -0.0016992795    2.5742248    4.5090608 -0.020952385 
     400    1.5683028 -0.0032456074    2.1576334    4.5056356 -0.041936523 
     600    1.6255266 -0.0057291895     2.073819    4.5051293  -0.02666505 
     800     1.617215 -0.017144125    2.0978113    4.5052457 -0.003207924 
    1000    1.6308328 -0.025078131    2.0854551    4.5053717  0.013347489 
    1200    1.5973959 -0.044492749    2.1547919    4.5051642  0.023434164 
    1400    1.6071221 -0.057083335     2.152827    4.5051906  0.011922771 
    1600    1.5626163 -0.065330899    2.2278965     4.505288 0.0063291869 
    1800    1.6187799 -0.077483428    2.1557944    4.5052356  0.011785212 
    2000    1.5909624  -0.07432577     2.194143     4.505037  0.003317543 
    2200    1.5677444  -0.07823828    2.2330915    4.5052639 -0.00020380393 
    2400    1.5926688 -0.089013345    2.2060916    4.5048563 0.0063465864 
    2600     1.616143 -0.081314274    2.1630809     4.504738   0.01434879 
    2800    1.5866727 -0.087807135    2.2138029    4.5047844 0.0037070619 
    3000    1.5748522 -0.092019643    2.2357016    4.5047488 -0.0064111222 
    3200    1.5733955 -0.086614458    2.2327312    4.5049996 0.0011344236 
    3400    1.5691719  -0.08210687    2.2347251     4.505169 0.0023798517 
    3600    1.5414068  -0.08908841    2.2832897    4.5051258 0.0082310096 
    3800    1.5895671 -0.092588036     2.214506    4.5050459 0.0047028062 
    4000    1.5543695 -0.086807848    2.2618012     4.505352 0.0045568033 
    4200    1.5403408 -0.090353225    2.2864049    4.5053779 0.00033421749 
    4400    1.5658194 -0.079613634    2.2375788    4.5054899 0.0013941656 
    4600    1.5797982 -0.082321386    2.2194092    4.5055699 -0.0044738301 
    4800    1.5783962 -0.082223486    2.2211489    4.5053056 -0.00029736234 
    5000    1.5415177 -0.080475339    2.2748563    4.5054718 0.0026265807 
    5200    1.5938262 -0.080533653    2.1964919    4.5054715 0.0072737132 
    5400    1.5729577 -0.084571125    2.2316701    4.5053256 -0.0039451886 
    5600    1.6034826 -0.085381104    2.1867641    4.5053735 -0.0013688226 
    5800    1.5844695 -0.090037648    2.2200433    4.5054912 -0.00017613451 
    6000    1.6028227 -0.086714782    2.1892551    4.5055414 0.0059559609 
    6200    1.6055188 -0.093794547    2.1923745    4.5056231 0.0097778432 
    6400    1.5563729 -0.084745034    2.2569359     4.505553 -4.9657413e-05 
    6600    1.6043379 -0.094183947      2.19446    4.5055488 0.0088034017 
    6800    1.5739827 -0.090961875    2.2365062    4.5053077 -0.00082510058 
    7000     1.602046  -0.10022865    2.2036638    4.5052718 0.0057085848 
    7200    1.5998587 -0.098189469    2.2049202    4.5052881  0.002776765 
    7400    1.5729592 -0.097113133    2.2442374     4.505353 0.00079505763 
    7600    1.5505121 -0.093925382    2.2751383    4.5057884 -0.003579994 
    7800    1.5567772 -0.086489735    2.2584446    4.5059231 0.0066715959 
    8000    1.5836247 -0.081259704    2.2126672    4.5056263   0.01431119 
    8200    1.5566845 -0.088863057    2.2604441    4.5054104 0.0058649684 
    8400    1.5646625 -0.080300095    2.2399252    4.5054153 -1.1742941e-05 
    8600    1.5555553 -0.080467748    2.2537544     4.505423 0.0011195689 
    8800    1.5888834  -0.07832693    2.2015243    4.5053003 -0.0053553786 
    9000    1.5465205 -0.070090215    2.2571996    4.5057005 -0.0075016172 
    9200    1.6002164 -0.072904059    2.1793211    4.5055108  0.004103934 
    9400    1.5798583  -0.06756297    2.2045077     4.505517 0.0013037425 
    9600    1.5709906 -0.062653879    2.2130624     4.505686 -0.0019199644 
    9800    1.5599931 -0.065094977    2.2320973    4.5057919 0.0060243613 
   10000    1.5384967 -0.056270648    2.2560868    4.5063778 0.0055426503 
   10200     1.577695 -0.059400868    2.2002151    4.5061432 0.0021717049 
   10400    1.5493238 -0.070133066    2.2534488    4.5061097 0.00066884831 
   10600    1.5726314 -0.063920186    2.2123162    4.5061333 0.0052438732 
   10800    1.5437833  -0.05927668    2.2513427    4.5065534 -0.0056426128 
   11000    1.5504112 -0.062776439    2.2444908    4.5061386 -0.0024228417 
   11200    1.5561403 -0.060032787    2.2333163    4.5062969 0.0024052674 
   11400    1.5721511 -0.063183888    2.2126643    4.5064978 -0.00097169935 
   11600    1.5601501 -0.052311666    2.2203994    4.5071128 -0.0036767673 
   11800    1.5547105 -0.053170532    2.2289373    4.5066365 0.0014457767 
   12000    1.5494355 -0.051029804    2.2347137    4.5066452 0.0026903187 
   12200    1.5358563 -0.046885643    2.2513966     4.507114 0.0021977384 
   12400    1.5758504 -0.047044741    2.1913951    4.5069138  0.010362009 
   12600    1.5875932 -0.042247963    2.1684374     4.506358 0.0066110476 
   12800     1.585251 -0.049347374    2.1792461    4.5065559 -0.0027248013 
   13000    1.5595021 -0.050251747    2.2192859    4.5070876 0.0032859127 
   13200    1.5717918 -0.046514571    2.1967249    4.5066891 0.0095828767 
   13400    1.5358112 -0.046574104    2.2515198    4.5074811 0.0015714891 
   13600    1.5601169 -0.040666255    2.2088171    4.5071261 0.0055346018 
   13800    1.5134948 -0.043592675    2.2819819    4.5074671 -0.004614337 
   14000    1.5821809 -0.042113507    2.1773986    4.5073394 0.00062589091 
   14200    1.5652828 -0.041091538    2.2017092    4.5073378 0.0044205487 
   14400    1.5252074 -0.032849084    2.2536209    4.5074097 -0.0041633785 
   14600    1.5529468  -0.04011059    2.2192422    4.5073573 -0.0028332471 
   14800    1.5398341 -0.036788227    2.2357851    4.5075635 0.0029664218 
   15000    1.5487388 -0.038827989    2.2242532    4.5073421 0.0064609211 
   15200     1.547876 -0.040857995    2.2278995    4.5076649 0.0025564222 
   15400    1.6052862 -0.039920716    2.1404254    4.5071992 -0.000668953 
   15600     1.570903 -0.034068673    2.1863621    4.5074395 0.0015584832 
   15800    1.5909062 -0.025835273    2.1478255    4.5071257 0.0024558907 
   16000    1.5374691 -0.029944259     2.232675    4.5077517  0.002663009 
   16200    1.5672977 -0.032876125    2.1908518    4.5077166 0.0083585909 
   16400    1.5594884 -0.028519158    2.1983983    4.5079121 -0.00037992651 
   16600    1.5515879 -0.032314364    2.2143033    4.5081772 -0.005289536 
   16800    1.5560842 -0.031640941    2.2070092    4.5082975 0.0020827056 
   17000    1.5769748 -0.025201472    2.1687595    4.5078072 -0.00079902463 
   17200    1.5412842 -0.022967833    2.2205432     4.508316 -0.0042878503 
   17400      1.56001 -0.025143226    2.1943425    4.5080143 0.0026022386 
   17600    1.5406289  -0.02462924    2.2233593    4.5084883 0.0048951969 
   17800    1.5798036 -0.027068808    2.1664714    4.5078928 0.0040449638 
   18000    1.5233887 -0.025361272    2.2497956    4.5083455 -0.0073186292 
   18200    1.5448066  -0.02414871    2.2163927    4.5082657  0.007344029 
   18400    1.5887139  -0.02389383    2.1496663    4.5076212 -0.0027899146 
   18600    1.5527857 -0.022900835    2.2033399    4.5084231  0.001363421 
   18800    1.5739835 -0.025979585    2.1749478    4.5087327 0.0043712338 
   19000    1.5409978 -0.027079337    2.2258652    4.5090972 0.0027766506 
   19200    1.5510232 -0.031517882     2.215035    4.5088589 0.0015476647 
   19400    1.5534852 -0.025349321    2.2057537    4.5094372 0.0017864669 
   19600    1.4977857 -0.028126715    2.2919961    4.5093958 -0.0037818385 
   19800    1.5489348 -0.025666587     2.212476    4.5090201 0.0010366705 
   20000    1.5667725 -0.026195469     2.186018    4.5087761 0.0035608982 
   20200    1.5409199 -0.021831353     2.220925    4.5092881 -0.0051240299 
   20400     1.554885 -0.025321286    2.2036129     4.509423 -0.0052669162 
   20600    1.5547065 -0.020029893    2.1984331     4.509267 0.0022038641 
   20800    1.5652546 -0.026177271    2.1888107    4.5093113 -0.0033035951 
   21000    1.5495013 -0.026811533    2.2130153    4.5092638 -0.0057478178 
   21200    1.5966847 -0.027839397    2.1432759    4.5092353 -0.0013252684 
   21400    1.5441742 -0.031561607    2.2262013    4.5097132 0.00081383565 
   21600    1.5289729 -0.035562535    2.2530592    4.5097799 -0.0012642267 
   21800    1.5226082 -0.033016157    2.2602211     4.509946 -0.00091238343 
   22000    1.5429322 -0.025088069    2.2217907    4.5099141  0.004786799 
   22200    1.5521105 -0.029164874     2.211815     4.509622 0.0025473119 
   22400    1.5445175 -0.024869567    2.2192214      4.50994 0.0056412678 
   22600    1.5465592 -0.027154535    2.2182767    4.5097713 -0.0053167389 
   22800    1.5346873 -0.025729811    2.2347493    4.5098699 -0.0002319755 
   23000    1.5687391 -0.031669792    2.1893792    4.5096114   0.00167209 
   23200    1.5143428 -0.029655402    2.2694165    4.5101103 -0.0047369294 
   23400    1.5629003 -0.031702874    2.1984631    4.5099084 0.0040934437 
   23600    1.5560235 -0.030142251    2.2080595    4.5107556  0.003667849 
   23800    1.5762146 -0.027179734    2.1745924    4.5105221 0.0019114142 
   24000    1.5243181 -0.027416511    2.2523291    4.5102172 -0.00058661194 
   24200     1.552255 -0.030213855    2.2128519    4.5098265 -0.0015694691 
   24400    1.5741334 -0.021314168    2.1712912    4.5099663 0.0030701787 
   24600    1.5608756 -0.022573693    2.1926659    4.5102049 -0.013952361 
   24800    1.5633225 -0.021947718    2.1883561    4.5101896 0.0017851505 
   25000    1.5793709 -0.026352816    2.1687457    4.5102344 0.0054271505 
   25200    1.5320685  -0.02577666    2.2394245    4.5105721 -0.0010805501 
   25400    1.5708213 -0.025235547    2.1805562    4.5103442   0.00138573 
   25600    1.5821751 -0.026769376    2.1650821    4.5103584 0.00029935225 
   25800    1.5598642 -0.025994531    2.1976185    4.5102204 -0.00030444013 
   26000    1.5254861 -0.022977985    2.2458539    4.5099316 -0.0042586789 
   26200    1.5566501 -0.025149066    2.2012301    4.5098587 -0.00097651007 
   26400    1.6168591 -0.028112062    2.1140261    4.5099589 0.0045507786 
   26600    1.5410204 -0.022233183    2.2224087    4.5105208 -0.0057532798 
   26800    1.5582943 -0.025858589    2.2002472    4.5106314 -0.002052064 
   27000    1.5518801 -0.021315181    2.2051733    4.5104846 0.0016601051 
   27200     1.528827 -0.021832983    2.2404742    4.5107057   0.01015757 
   27400    1.5576472 -0.017855912     2.193186    4.5106027 0.0019561366 
   27600     1.572545   -0.0162264    2.1691313    4.5105127 -0.0063503669 
   27800    1.5623307 -0.021682852    2.1896778    4.5102893 -0.001559129 
   28000    1.5232289 -0.020560573    2.2473839    4.5104949 0.0027886865 
   28200    1.5289629 -0.018397403    2.2368136    4.5106844 0.0018577005 
   28400    1.5433229 -0.017805652    2.2147073    4.5106988 -0.0013423082 
   28600    1.5735836 -0.016146186    2.1676388    4.5106576 0.0027633674 
   28800    1.5384858 -0.021506499    2.2257995    4.5108382 -0.0048104783 
   29000    1.5373806 -0.023120956     2.228869    4.5106363 0.0025357643 
   29200    1.5468378 -0.023665779     2.215508     4.510909 -0.0013581247 
   29400    1.5566591 -0.019728782    2.1966772    4.5107396 -0.0047887507 
   29600    1.5350757 -0.019857209    2.2294283    4.5110038  0.004342094 
   29800    1.5504794 -0.019536455     2.205987     4.510977 0.00064907696 
   30000    1.5459958  -0.01805821    2.2113494    4.5110956 -0.00014037046 
   30200    1.5728465 -0.023629228    2.1765194      4.51095 -0.0022874841 
   30400    1.5931363 -0.021813361      2.14496    4.5116256 -0.0062289598 
   30600    1.5615448 -0.025580049     2.196099    4.5116349 0.0011838134 
   30800    1.5318973 -0.023280054    2.2384578    4.5118453 0.0058409542 
   31000    1.5727437 -0.028426459    2.1820597    4.5115389 0.0051017685 
   31200    1.5402464 -0.026315644     2.228891    4.5117601 -0.0029062505 
   31400    1.5445835 -0.021498687    2.2178099    4.5119984 0.0021614939 
   31600    1.5256403 -0.023797983    2.2486845    4.5121734 -0.0017549028 
   31800    1.5583247 -0.021015203    2.1968284    4.5121015 -0.0029499313 
   32000    1.5312048 -0.018209954    2.2347519    4.5121713 -0.0027155766 
   32200    1.5830495 -0.018957393    2.1576175    4.5120165 -0.0012181195 
   32400    1.5479362 -0.018214084    2.2098375     4.512337 0.00093408843 
   32600    1.5617693 -0.018430807    2.1892022    4.5122239 -0.0041170923 
   32800     1.523944 -0.021185171    2.2489975    4.5125561 0.0067447604 
   33000    1.5632171 -0.021851571    2.1908369    4.5126085 0.00013430324 
   33200    1.5596538 -0.024344957      2.19851    4.5124459 0.0057842128 
   33400    1.5562911 -0.026816684    2.2062311    4.5126539 0.0034659333 
   33600    1.5482252 -0.021307311    2.2128396    4.5126792 -0.0039655547 
   33800    1.5398329 -0.024719602    2.2288739    4.5127191 0.0013034573 
   34000     1.572373   -0.0218752     2.177036    4.5125107 0.0043970727 
   34200    1.5450547 -0.022474861    2.2187966    4.5127153 0.0044072439 
   34400    1.5367176 -0.023739474    2.2327172     4.512872 0.0020642716 
   34600    1.5515839 -0.025679164    2.2123879    4.5128911 -0.0048000627 
   34800    1.5275767 -0.021167595    2.2439712    4.5129936 -0.0044393583 
   35000     1.553513 -0.021074827    2.2053287    4.5133284 0.00033744677 
   35200    1.5635637 -0.025480881    2.1941282    4.5127901 -0.0050682381 
   35400    1.5289697 -0.026091734    2.2466887    4.5128753 0.0022832104 
   35600    1.5581184 -0.024439719    2.2013128    4.5128521 0.0066168081 
   35800    1.5711779 -0.022810212    2.1796839    4.5124319 -0.0021307503 
   36000    1.5405326 -0.021374537    2.2247095    4.5129488 0.0085939569 
   36200     1.570117 -0.026116044    2.1846989    4.5125505 0.0049427762 
   36400    1.5564868 -0.022239894    2.2019191    4.5132121 -0.00050649932 
   36600    1.5857087 -0.019445905    2.1550813    4.5129787 0.00085748275 
   36800    1.5593032 -0.023257133    2.1987333    4.5132316 -0.0053104935 
   37000    1.5564237  -0.02182255    2.2018455    4.5134612  -0.01192451 
   37200    1.6140281 -0.025063173    2.1182809    4.5130183 0.00066534904 
   37400    1.5645727 -0.022911153    2.1907715    4.5135159 -0.00012345984 
   37600    1.5439124  -0.02048843    2.2193723    4.5135649 0.0011438091 
   37800    1.5294102 -0.016668219    2.2376657    4.5139363 0.00044297974 
   38000    1.5514275 -0.021978495    2.2098035    4.5137729 -0.0010515091 
   38200     1.550616 -0.019355141    2.2082622    4.5136382 0.0053027509 
   38400    1.5112098 -0.021838296    2.2704151     4.514229 -0.0062440799 
   38600    1.5301458 -0.021184478    2.2412562    4.5141134 -0.0039411782 
   38800    1.5540943 -0.019391894    2.2031952    4.5137493 0.0008054411 
   39000    1.5397626 -0.019440401    2.2253225    4.5143416  0.003913571 
   39200    1.5497472 -0.018059912     2.208449    4.5138177 0.0074681874 
   39400    1.5445377 -0.017446988    2.2158864    4.5140578 0.0054459855 
   39600    1.5386378 -0.019596251    2.2268671    4.5140439 -0.0053186078 
   39800    1.5461867 -0.018026037     2.214321    4.5143855 -0.0060611686 
   40000    1.5353943 -0.017700203    2.2303737    4.5145839 -0.00045147279 
   40200    1.5712889 -0.022478574    2.1810546    4.5143007 0.0023617743 
   40400     1.551098  -0.02286126    2.2115338    4.5141264 0.0032805589 
   40600    1.5361398 -0.018195226    2.2293554    4.5141883 -0.00040406025 
   40800    1.5521454 -0.017443243     2.204912    4.5144929 0.0043464781 
   41000    1.5445535 -0.015222255    2.2142505    4.5146704 0.0049735177 
   41200    1.5528778 -0.013294202    2.1996233    4.5144513 -0.0088266004 
   41400    1.5554491 -0.009352621     2.192207    4.5148315 -0.0016971623 
   41600    1.5553038 -0.012196826    2.1951024    4.5146649 -0.0023188689 
   41800    1.5764259 -0.010589363    2.1618717    4.5147086 0.0086331742 
   42000    1.5152626 -0.0092690113    2.2525975    4.5150568 0.0026578608 
   42200    1.5452197 -0.0080275427    2.2064354    4.5150487 -0.0048503652 
   42400    1.5251377 -0.0088546737    2.2377811    4.5154599 -0.0028958574 
   42600    1.5381885 -0.011007589    2.2202655    4.5153574 0.0041717888 
   42800    1.5392293 -0.011880035    2.2197165    4.5154964 0.0052783406 
   43000    1.5369791 -0.012252666    2.2233253     4.515359 -0.006839926 
   43200    1.5522766 -0.014359089    2.2025245    4.5153863 -0.00097691192 
   43400    1.5333447   -0.0128244    2.2291802    4.5151934 0.0024019983 
   43600    1.5114923 -0.012380451    2.2620537     4.515749 0.00025451931 
   43800    1.5554748 -0.011519088    2.1949608    4.5154574 -0.0041965429 
   44000    1.5478979 -0.0098960285    2.2052422    4.5160023 -0.00057546537 
   44200    1.5484488 -0.011629019     2.205931     4.515784 -0.00067011717 
   44400    1.5552472 -0.016047183    2.2001794    4.5158067 0.00041699572 
   44600    1.5882307 -0.014351212    2.1489724    4.5157455 0.0090639462 
   44800    1.5573012 -0.014188527    2.1953056     4.515871 -0.0020107201 
   45000    1.5714278 -0.016050187    2.1761312     4.516014 -0.00031774888 
   45200    1.5414792  -0.01591007    2.2213626    4.5164855 0.0032775805 
   45400    1.5740302 -0.015080665    2.1716135    4.5163672 0.0022045125 
   45600    1.5653514 -0.012026507    2.1815664     4.516363 -0.0026818243 
   45800    1.5500487 -0.012350601    2.2051296    4.5166597 0.0028027518 
   46000    1.5418758 -0.013196737    2.2184798    4.5169107 0.0030307591 
   46200    1.5650144 -0.0092344654    2.1798079    4.5168911 0.0059960684 
   46400    1.5498767 -0.011863669    2.2052252    4.5169843 -0.004013934 
   46600    1.5718092 -0.011925605    2.1720739    4.5166531 0.0065794532 
   46800    1.5389916 -0.0081309992    2.2178837    4.5170564 -0.0019944949 
   47000    1.5615726 -0.0099940528    2.1860088    4.5171724 -0.0049212187 
   47200    1.5481366 -0.011800884    2.2081001    4.5173131 0.00016253104 
   47400    1.5518353 -0.011171414    2.2020472    4.5174351 0.0044161917 
   47600    1.5519655 -0.011003784    2.2013046    4.5170553 0.0076693817 
   47800    1.5165784 -0.010987863    2.2547165    4.5174296 -0.0021826023 
   48000    1.5252658 -0.010420309     2.241333    4.5176381 -0.0018659625 
   48200    1.5342668 -0.0094858338    2.2268055    4.5175397  0.004478395 
   48400    1.5691762 -0.010995223    2.1764135    4.5179755 -0.0022961333 
   48600    1.5756347   -0.0111511    2.1663811      4.51747  0.002597021 
   48800    1.5379009 -0.010036014    2.2222475    4.5178799 0.0010372177 
   49000    1.5806658 -0.011146768    2.1588225    4.5174586 0.00084977477 
   49200    1.5773296 -0.010542587    2.1634974    4.5177359 0.0027352365 
   49400    1.5729468 -0.010451209    2.1698635    4.5176225 -0.0022755253 
   49600    1.5401805 -0.011384436     2.220213    4.5179146 0.0023654632 
   49800    1.5425636 -0.010421016    2.2158582    4.5180961 0.0029369045 
   50000    1.5544173 -0.012732551    2.2004098    4.5181075 0.0026603408 
   50200    1.5472261 -0.014912176    2.2136297    4.5183666 0.00087711643 
   50400    1.5829083 -0.010100976    2.1551682    4.5182121 0.0031595357 
   50600    1.5569942 -0.0080654036    2.1924821    4.5187103 0.0033571016 
   50800    1.5764639 -0.0088545198    2.1639713       4.5186 -0.0025154142 
   51000    1.5360549 -0.0081164712    2.2243075    4.5190919 -0.0037268691 
   51200    1.5617712 -0.009878496     2.187078    4.5186549 0.0023932689 
   51400    1.5718738 -0.010996967    2.1734683    4.5190729 0.00057576659 
   51600    1.5540322 -0.010010534    2.1994416    4.5192839 0.0019890639 
   51800     1.545502 -0.0088348003    2.2108492    4.5190787 -0.0040110557 
   52000    1.5673491 -0.0095969658    2.1787888    4.5190099 0.0082486284 
   52200    1.5475083 -0.0071619728    2.2066185    4.5195286 0.0035372993 
   52400    1.5404283 -0.0090015371    2.2188094    4.5192653 0.00081224123 
   52600    1.5173655 -0.0099731792    2.2547426    4.5196506 0.0078509364 
   52800    1.5313712 -0.0070950702    2.2307514    4.5195351 0.0047162094 
   53000    1.5206923  -0.01140983    2.2514161    4.5198749 0.0017200432 
   53200    1.5556554 -0.010831742    2.1982152      4.51967 -0.00057936463 
   53400    1.5685855 -0.010453189     2.178693    4.5199115 -0.0038144238 
   53600    1.5483611 -0.012035077    2.2106114    4.5199269 -0.0022090046 
   53800    1.5483939 -0.011862326    2.2104752    4.5200126 0.00073699822 
   54000    1.6006535 -0.010467648    2.1304505    4.5197318 0.0053899983 
   54200    1.5249158 -0.009151149    2.2430619    4.5201115 -0.0013597006 
   54400    1.5046902 -0.010055953    2.2748087    4.5206307 0.0034699863 
   54600    1.5547228 -0.0093700734    2.1988601    4.5203783 0.0045796392 
   54800    1.5065857 -0.0071909498    2.2690284     4.520557 -0.0059293059 
   55000    1.5770666 -0.0069605213    2.1632332    4.5206595 0.0036579017 
   55200    1.5450596 -0.0065387592    2.2110224    4.5208845 -0.0059225613 
   55400    1.5489863 -0.0073907033    2.2059847    4.5208819 -0.0013524845 
   55600    1.5466927 -0.0081522035    2.2105867    4.5212837 0.0021184367 
   55800    1.5313269 -0.0088483682    2.2343209    4.5212849 -0.0045112192 
   56000     1.603433 -0.0099751419    2.1269681    4.5209089 0.0021919375 
   56200    1.5283578 -0.0098732069    2.2402587    4.5217466 -0.0021508803 
   56400    1.5482577 -0.0071378784    2.2077537    4.5218114 -0.0015785185 
   56600    1.5613431 -0.007933603    2.1888585    4.5217385 0.0046200204 
   56800    1.5247715 -0.0067659807    2.2427258     4.521944 -0.0065501263 
   57000    1.5674713 -0.0054823332    2.1775873    4.5221062  0.011094749 
   57200    1.5562565 -0.0048341682    2.1939088    4.5222622  0.010697093 
   57400    1.5388036 -0.0046147132    2.2202728    4.5226798 0.0023749831 
   57600    1.5568423 -0.0052538061    2.1936475    4.5224595 -0.0025488009 
   57800    1.5520116 -0.0062222923    2.2019939    4.5225951 -0.0038175764 
   58000    1.5547906 -0.0046598149    2.1970376    4.5233677 0.0025678421 
   58200    1.5901482 -0.0050293742    2.1440061    4.5229758 0.0015428679 
   58400    1.5097828 -0.004012605    2.2641737    4.5236739 -0.0065712334 
   58600    1.5693919 -0.0045125531    2.1748496    4.5232176 -0.00011560146 
   58800    1.5373328 -0.0034154882    2.2218576    4.5232588 0.00018917597 
   59000    1.5362868 -0.0032786566    2.2234229    4.5233927 0.0004464736 
   59200    1.5457554 -0.0029260837    2.2091385    4.5236564 -0.0009535485 
   59400    1.5596861 -0.0037388595    2.1892522    4.5238426 0.00083788241 
   59600    1.5358812 -0.0061423768    2.2274678    4.5239658 -0.00026990751 
   59800    1.5745912 -0.0058635145    2.1693182    4.5241303 0.0074861926 
   60000     1.540985 -0.0066960246    2.2206103    4.5242065 0.0032173411 
   60200    1.5752032 -0.0058853926    2.1683632    4.5240709 -9.1034088e-05 
   60400     1.522042 -0.006215246    2.2488784    4.5245554 -0.0047346191 
   60600     1.533682 -0.009133561    2.2342871    4.5244968 -0.0018686091 
   60800    1.5451919 -0.0093101676    2.2172832    4.5245723 0.0051585949 
   61000    1.5384221 -0.0088298939    2.2273157    4.5249357 0.0048808355 
   61200    1.5467729 -0.0063677838    2.2124089    4.5250106 0.0034681172 
   61400    1.5580777 -0.0074980668    2.1965091    4.5249291 0.0019668301 
   61600    1.5716442 -0.0087403091    2.1773872    4.5249043 0.00096160563 
   61800    1.5743393 -0.0095057642    2.1742041    4.5249962 0.0012755172 
   62000    1.5398818 -0.010286916    2.2271422    4.5254934 0.0034765651 
   62200    1.5607417 -0.013339177    2.1988704    4.5254432 0.0071473316 
   62400    1.5120151 -0.0096994447    2.2686961    4.5258562 0.00083337848 
   62600     1.554737 -0.013260276    2.2079217     4.525571 0.00099693979 
   62800    1.5669729 -0.014200405    2.1903866    4.5254401 0.0058313041 
   63000    1.5559343 -0.010549962    2.2035777    4.5257323 -0.0054368506 
   63200    1.5608103 -0.010028684    2.1957851    4.5257713 -0.003835975 
   63400    1.5654709 -0.014115769     2.192807    4.5256934 0.0020157674 
   63600    1.5674136 -0.013796041    2.1896099    4.5257285 0.0037286546 
   63800    1.5183542 -0.012547174    2.2623534    4.5261696 0.0076084667 
   64000    1.5260893 -0.012786168    2.2511484    4.5263222 -0.00050934465 
   64200    1.5305017 -0.011937822    2.2434437    4.5260811 -0.0014821113 
   64400    1.5519659 -0.013039353     2.212331    4.5260466 -0.0052593278 
   64600    1.5454819 -0.010850607    2.2198128    4.5259963 0.0001643793 
   64800    1.5745634  -0.01039842    2.1758834    4.5261188 -0.0018874389 
   65000    1.5282828 -0.0088158119    2.2436124    4.5260453 0.00051467885 
   65200    1.6068476 -0.0087747019    2.3011879    4.7014486 -0.00064940818 
   65400    1.6239106 -0.0093577644    2.2701726    4.6954315 0.00090633476 
   65600    1.6562035 -0.010620528    2.2225725    4.6949833 -0.0051156404 
   65800    1.6094454 -0.0090273193    2.2912343    4.6951371 0.0018505564 
   66000     1.594146 -0.0091680954    2.3149311    4.6957557 0.0068418346 
   66200    1.5833706 -0.010920265    2.3328153    4.6957331 0.0076759887 
   66400    1.5597456 -0.010505426     2.367788    4.6957012 -0.0063146169 
   66600    1.5495672 -0.009749883    2.3823168    4.6957257 -0.0060232579 
   66800    1.5868455 -0.0079290173     2.324744    4.6958626 0.0022014095 
   67000    1.5706374 -0.0086229422    2.3497535    4.6958785 -0.0029807318 
   67200    1.5981656 -0.0072513121    2.3074148    4.6961825 0.0009401614 
   67400    1.6170941 -0.007722041    2.2792179    4.6958931  0.003429442 
   67600    1.5927192 -0.0072114232    2.3153811    4.6960232 0.0019310285 
   67800    1.6018649 -0.0058325577    2.3004979    4.6962305 0.0044471584 
   68000     1.609358 -0.0050950856     2.288331    4.6960349 -0.0025554202 
   68200    1.5788975 -0.0043444297    2.3336997     4.696487 -0.0063436883 
   68400    1.6020427 -0.0024655357     2.297019    4.6963852 -0.0015769006 
   68600    1.6060321 -0.004682272    2.2933322    4.6964626 -0.00037993707 
   68800    1.6153743 -0.0069983214    2.2817894    4.6966099 0.0072964241 
   69000    1.5609274 -0.0055456216    2.3623287    4.6969734 -0.0046684041 
   69200    1.6016605 -0.006366111    2.3019199    4.6968124 -0.0012721047 
   69400    1.5662489 -0.0070875937    2.3558528    4.6969337 -0.0041003751 
   69600    1.6333827 -0.0066257959    2.2541947    4.6963865 0.0039417857 
   69800     1.596568 -0.0058100679    2.3084653     4.696279 0.0022241871 
   70000    1.6073708 -0.0074282093    2.2937298    4.6961213 0.00098906522 
   70200    1.5937219 -0.0078738397    2.3146311    4.6961142 0.0033613232 
   70400    1.6200459 -0.0091746505     2.276335     4.695983 0.0035288089 
   70600    1.5619861 -0.0074879357     2.362248    4.6965377 -0.0045532665 
   70800    1.6077986 -0.0095584712    2.2960795    4.6969821 -0.0055769733 
   71000    1.6343359 -0.011710984    2.2579674    4.6965031 0.0020351679 
   71200    1.5880207 -0.011912391    2.3279746    4.6968717 -0.0019945262 
   71400    1.5401323 -0.012117323    2.4001637      4.69706 -0.00073059551 
   71600    1.6304451 -0.011458582     2.264026    4.6969809 0.0096722722 
   71800    1.6092886 -0.011065826    2.2953095    4.6969387 0.0043837817 
   72000    1.6161281 -0.010671071    2.2847695    4.6970473 -0.0052171464 
   72200    1.6320684 -0.0062392203    2.2569359    4.6975439 0.00085074301 
   72400    1.6045112 -0.008446976    2.3004997    4.6975852 0.0031315319 
   72600    1.5766816 -0.012106876    2.3459492     4.697652 -0.0039495684 
   72800    1.6414107 -0.013131375    2.2506303    4.6983523 0.0080220249 
   73000    1.5863837 -0.010978689     2.331461    4.6988376 0.0083519081 
   73200    1.5847319 -0.011250875    2.3333999    4.6980278 -0.0058769111 
   73400    1.5908278 -0.010744677    2.3238451    4.6981184 0.0061306843 
   73600    1.6081586 -0.011680253    2.2986272    4.6979478 0.0043970343 
   73800    1.6044102 -0.013496546    2.3063671    4.6982517 0.0039122868 
   74000    1.6404961 -0.014879626    2.2534044     4.698007 -0.0040647893 
   74200    1.5822763 -0.010626341    2.3369469    4.6985179 -0.0045480731 
   74400     1.584656 -0.0088911723    2.3316101    4.6984839 -0.0064377212 
   74600    1.6165644 -0.0072629732    2.2819514    4.6982915 -0.0011725531 
   74800    1.6337849 -0.0051582432    2.2537612    4.6980235 -0.0061893412 
   75000    1.6149457 -0.0045548364    2.2818154    4.6984368 -0.00015801267 
   75200    1.5758583 -0.0027786726    2.3396713    4.6994679 0.0037160689 
   75400    1.6079095 -0.0085170939    2.2970835    4.6991939 -0.002862256 
   75600    1.5964519 -0.0067403289    2.3128126    4.6995221 0.0089174747 
   75800    1.6182829 -0.0075366301    2.2807302    4.6993731 0.0047559221 
   76000    1.6042427 -0.0074412794    2.3019268    4.6996156 -0.003624132 
   76200    1.6304718 -0.0072303273    2.2623715    4.6995946 0.0047955961 
   76400    1.5811993 -0.0061363009    2.3354365    4.6998828 -0.0070075946 
   76600    1.5886301 -0.0068552258    2.3252245    4.7000925 0.0044296949 
   76800    1.5686845 -0.0059073273    2.3543782     4.700291 0.0072058366 
   77000    1.6201637 -0.0069466223     2.278079    4.7001316 -0.00039084099 
   77200    1.5867872 -0.0066489157     2.328669    4.7009803 0.0018231205 
   77400    1.6036883 -0.0076863798    2.3035781    4.7001906 0.0076518267 
   77600    1.6180626 -0.0098583377    2.2843352     4.700326 0.0055756632 
   77800    1.5865154 -0.0097829034    2.3321512    4.7009211 0.0011629937 
   78000    1.5848642 -0.0080526061      2.33289    4.7009146 -0.001088419 
   78200     1.586025 -0.0088689893    2.3326299    4.7015784 0.0014201052 
   78400    1.5936548 -0.0075004462    2.3202083    4.7019642 0.0019305911 
   78600    1.5981477 -0.0067829002    2.3126326    4.7018419 0.0033631408 
   78800    1.5834343 -0.0089656127    2.3373444    4.7023122 -0.0029377882 
   79000    1.5969325 -0.010165142    2.3181248      4.70213 -7.02434e-05 
   79200    1.6103882 -0.0081490222    2.3555043    4.7616988 0.00046418167 
   79400    1.6472212 -0.0073495008     2.298602    4.7608173 0.0067941721 
   79600    1.5822326 -0.0061535673    2.3973587    4.7633368 -0.0036781161 
   79800    1.6192688 0.00014873629    2.3361028    4.7639091 0.0011974096 
   80000      1.60645 -0.0040176672    2.3590718    4.7634935 -0.005999885 
   80200    1.6392901 -0.0034150624    2.3092669     4.763526 0.0054857739 
   80400    1.5841054 -0.0030862417    2.3921096     4.763963 -0.0020229572 
   80600    1.5644767 -0.0051415383    2.4238786    4.7642486 -0.0016152707 
   80800    1.6420428 -0.0031538542    2.3051752    4.7638223 -0.0016707164 
   81000    1.5939783 -0.0052456786    2.3794088    4.7639043 -0.0051191814 
   81200    1.6367048 -0.0047563333    2.3152198    4.7642616 0.0076164801 
   81400    1.6219432 -0.0042254223    2.3370694    4.7645111  0.003002972 
   81600    1.6102877 -0.0055118896    2.3556729    4.7643538 0.0016345472 
   81800     1.578656 -0.0025473205    2.4007558    4.7649781 0.0053088929 
   82000    1.6077089 -0.0067260588    2.3611768    4.7647774 -0.00047849919 
   82200    1.6079111  -0.00762341     2.362151    4.7651573  -0.00605681 
   82400    1.6349337 -0.0066714359    2.3204023    4.7648738 0.0051324006 
   82600    1.6197343 -0.0056205399    2.3424061     4.765141 0.0037993159 
   82800    1.6517864 -0.0090041076    2.2974966    4.7649015 0.0023239147 
   83000    1.6109772 -0.0075585083    2.3573921    4.7650602 -0.0030333545 
   83200    1.6441681 -0.0065083498    2.3071069    4.7655859 0.0063286535 
   83400    1.6030006 -0.0065261571    2.3685145    4.7652562 0.0030328926 
   83600    1.5714951 -0.0058779436    2.4156651    4.7658209 -0.0023961037 
   83800    1.6456552 -0.0070285968     2.305314    4.7655023 0.0028393571 
   84000    1.6221436 -0.0080138907    2.3418023    4.7657561 0.0044063116 
   84200    1.6086322 -0.0063048272    2.3606402    4.7660462 0.0060683197 
   84400     1.636827 -0.0064915701     2.318741    4.7662307 0.00090726268 
   84600    1.6006327 -0.0059535726    2.3728618     4.766626 -0.0062611608 
   84800    1.5827837 -0.0062869211    2.4000666    4.7667378 0.00050940116 
   85000    1.6262652 -0.0028499192    2.3311033    4.7664003 0.0071540146 
   85200     1.600401 -0.0071996658    2.3747279    4.7668987 -0.005920892 
   85400    1.6098053 -0.008441389      2.36215    4.7671782 0.0040348199 
   85600    1.6314814 -0.0088671032    2.3294144    4.7665144 -0.0071239205 
   85800     1.629501 -0.0084260337    2.3322557    4.7668277 -0.0088047229 
   86000    1.5954035 -0.0081375373    2.3837146    4.7674551 0.0031738301 
   86200    1.6583053 -0.0075856442    2.2883754     4.766972 0.0043082471 
   86400    1.5993487 -0.0062941913    2.3762612    4.7677598 -0.0030840871 
   86600    1.5985723 -0.0054867509    2.3766882    4.7678302 -0.003955235 
   86800    1.6048359 -0.0063323532    2.3682125    4.7678995 0.0015649361 
   87000      1.60174 -0.004866783    2.3712025    4.7677137 0.0013949787 
   87200    1.6289006 -0.0045526017    2.3306108    4.7681561 0.0076189266 
   87400    1.6162019 -0.0052227919    2.3509159    4.7687527 -0.0018593762 
   87600    1.6348477 -0.0050101167    2.3230332     4.769037 -0.0014093986 
   87800    1.6344684 -0.0054556294    2.3241309    4.7691207 -0.0049892311 
   88000    1.6130675 -0.0041669424    2.3557683    4.7699618  0.002597019 
   88200    1.6343926 -0.0057060929    2.3248337    4.7694593 0.0036816731 
   88400    1.6149922 -0.0053107312    2.3538772    4.7698125 0.0040229166 
   88600    1.5727634 -0.0041341028    2.4160852    4.7698864 -0.0029887913 
   88800    1.6095713 -0.0034758243    2.3603909    4.7700338 0.0050387507 
   89000    1.6267353 -0.0037655161    2.3350146    4.7701006 0.0077329798 
   89200    1.6305918 -0.0062822497    2.3322484    4.7705996 -0.0017066955 
   89400    1.6317024 -0.0068943793    2.3311772    4.7705813 0.0038748686 
   89600     1.611939 -0.0085041729    2.3627727    4.7709371 7.7237122e-05 
   89800    1.6587355 -0.0076155739    2.2915355    4.7707473 -0.0030659528 
   90000    1.6098726 -0.0074472678    2.3652055    4.7713287 -0.0034187323 
   90200    1.6232787 -0.0057423438    2.3438576    4.7717847 -0.0054203482 
   90400    1.6220753 -0.0053515347    2.3456056    4.7721193 -0.0021258739 
   90600    1.6531277 -0.0047710196    2.2984209    4.7720698 0.0041738416 
   90800    1.6655524 -0.0082004987     2.283373    4.7722199 0.0021854293 
   91000    1.6162473 -0.010151187    2.3597389    4.7727153 0.0037426973 
   91200    1.6290177 -0.012237302    2.3428284    4.7728646 0.0046007778 
   91400    1.6464073 -0.0089313759     2.313758    4.7731711 0.0084422557 
   91600    1.6056556 -0.0089047231    2.3750854     4.773429 -0.0044328002 
   91800     1.591312 -0.0069644332    2.3949649    4.7737444 0.0013868418 
   92000    1.6337093 -0.0091078351    2.3335076     4.773707  0.008730405 
   92200     1.685514 -0.008046538    2.2547106    4.7736386 0.0044812097 
   92400      1.63438 -0.0071397561    2.3310026    4.7741756 0.00010602997 
   92600    1.6466617 -0.0077881876    2.3132108    4.7741485 -0.0038241642 
   92800    1.6426289 -0.0048061796    2.3175405     4.775414  0.002868414 
   93000    1.6229863 -0.0034881904    2.3455177    4.7752605  -0.00662732 
   93200    1.6245819 -0.0056116129    2.3455565    4.7755681 0.0072346832 
   93400    1.6180334 -0.0075046728    2.3570179    4.7753187 0.00011312541 
   93600    1.6425685 -0.0048165766    2.3178742    4.7756469 0.0058872219 
   93800    1.6434232 -0.0087680051    2.3208421    4.7759447 -0.0038296977 
   94000    1.5969912 -0.0057528755    2.3876697    4.7761752 -0.0027654365 
   94200      1.62984 -0.0047207511    2.3374591    4.7762446 0.0040674361 
   94400    1.5807156 -0.0050317275    2.4120161    4.7768418 0.0026588432 
   94600    1.6402611 -0.0058469971    2.3233885    4.7766714 0.0034929872 
   94800    1.6010444 -0.0069431518    2.3835293    4.7769212 0.0021158684 
   95000    1.6422909 -0.0056299165    2.3201142    4.7766573 0.0046642269 
   95200    1.6237643 -0.0046972593    2.3472328     4.776933 -0.0070389584 
   95400    1.6761462 -0.0034179985    2.2672841     4.776796 0.0071079579 
   95600     1.634696 -0.0072370549    2.3336811    4.7772306 0.0027800012 
   95800    1.5841282 -0.0054013121    2.4079678    4.7775401 5.5179046e-05 
   96000    1.6174702 -0.0062934213    2.3591614    4.7778291 -0.0034433767 
   96200    1.6077656 -0.0078116668    2.3754642    4.7780642 -0.0034909066 
   96400    1.6280239 -0.0085849709    2.3459331    4.7781316 -0.00091610902 
   96600    1.6158141 -0.0061963007    2.3621344    4.7784164 -0.009654238 
   96800    1.6073462 -0.0052771337    2.3742474    4.7787531 -0.00030592841 
   97000    1.6345588 -0.0070369363    2.3355794    4.7791234 -0.00014884869 
   97200    1.6470998 -0.0061277398    2.3159924    4.7792473 0.0090370509 
   97400    1.6375363 -0.0044809858    2.3288188    4.7793827 -0.0072549272 
   97600    1.6117179 -0.0044103198    2.3679336    4.7798603 -0.0046264068 
   97800    1.6205937 -0.0040047413    2.3538617    4.7795009 0.0028477558 
   98000    1.5966089 -0.0011820408    2.3874446    4.7799477 -0.0084150972 
   98200     1.617304 -0.0026649725    2.3577407    4.7797876 -0.0024536049 
   98400     1.644447 -0.0036971991     2.318337    4.7800454 0.0041687833 
   98600    1.6304642 -0.0017039927    2.3375445    4.7802827 0.0027583714 
   98800    1.6297241 -0.0041812851     2.341243    4.7803942 0.0014282221 
   99000    1.6417248 -0.0036271512    2.3227714    4.7804686 6.2696175e-05 
   99200    1.6438625 -0.0024876489    2.3184401    4.7804817 -0.006623796 
   99400    1.6309674 -0.0043851852    2.3397516    4.7805629 -0.0010291111 
   99600    1.6426186 -0.0050199726    2.3235632    4.7812076 0.0053606874 
   99800    1.6405958 -0.0057449273    2.3274205    4.7813073 0.00032756166 
  100000    1.5942118 -0.0060779575    2.3977532    4.7817667 -0.017466886 
  100200    1.6351815 -0.0050588378    2.3351675     4.781623 0.0044764088 
  100400    1.6675003 -0.0045335259    2.2863273    4.7817615  0.008634484 
  100600    1.6643172 -0.0067138046     2.293396    4.7818777 0.0086590037 
  100800    1.6491924 -0.0044191068     2.314363    4.7824638 -0.0048238448 
  101000    1.6570293 -0.0056199614    2.3039994    4.7826488 -0.0022228865 
  101200    1.6436885 -0.0048202983    2.3233436    4.7827916 0.00057055394 
  101400    1.6476293 -0.0035977241    2.3166154    4.7831943 -0.0026663876 
  101600    1.6039943 -0.0047944296    2.3838126    4.7837757  0.001638501 
  101800    1.5928125 -0.0049836774     2.401029    4.7840388 -0.0074867519 
  102000    1.6663744 -0.0062915896    2.2914281    4.7834163 0.0067143717 
  102200    1.6304343 -0.0053527156    2.3447548    4.7837994 0.0026836978 
  102400    1.6562697 -0.0037511949    2.3046882    4.7840675 -0.003144403 
  102600    1.6624948 -0.0056228325    2.2975506    4.7843911  0.002766258 
  102800    1.6044363 -0.0068904338    2.3862166    4.7847464 0.0044861977 
  103000    1.6517821 -0.0063293933    2.3146893    4.7847624 0.0033122144 
  103200    1.6308079 -0.0067838879    2.3470468    4.7852203 0.00050082394 
  103400    1.6264238 -0.0069981732    2.3538377    4.7852242 0.0042996247 
  103600    1.5986657 -0.0076770309    2.3964386    4.7855303 0.0020301684 
  103800    1.6323577 -0.0083222498    2.3462181    4.7851767 0.0027667958 
  104000     1.618759 -0.0060549415    2.3655267     4.786365 0.00027974769 
  104200    1.6419503 -0.0066574903    2.3310451      4.78605 0.0039707859 
  104400    1.6482048 -0.0064022092    2.3213125    4.7859496 0.0046352343 
  104600    1.6147612  -0.00757115    2.3730842    4.7864128 0.0025683015 
  104800    1.6557517 -0.0063697917     2.310424    4.7864081 -0.00091697781 
  105000    1.6437468 -0.0056655359     2.328273    4.7869632 0.00059354978 
  105200    1.6369293 -0.0044074783    2.3370242    4.7867515 -0.0034229019 
  105400     1.663894 -0.0046168531    2.2972386    4.7871828 0.0074421225 
  105600    1.6364754 -0.0035887832    2.3377528    4.7876184 0.00086555594 
  105800    1.6544339 -0.0036615509    2.3109822    4.7876989 -0.0019931667 
  106000    1.6459655 -0.0034376326    2.3236133    4.7878579 -0.0014261686 
  106200    1.6176858 -0.0030196887     2.366166    4.7884307 0.0088412367 
  106400    1.6505265 -0.0024513718    2.3163074    4.7883761 0.0044771347 
  106600    1.6229569 -0.0024921877    2.3579899    4.7886846 -0.014624442 
  106800    1.6448394 -0.002663316    2.3252344     4.788565 0.0042006874 
  107000    1.6470665 -0.0035559959    2.3230476    4.7888243 0.0054524422 
  107200    1.6377509 -0.0027608999    2.3363433    4.7889489 -0.0012412233 
  107400    1.6547886 -0.0024724664    2.3287408    4.8071783 -0.0033518908 
  107600    1.6403936 -0.0028561918    2.3509582    4.8074306 0.0048884822 
  107800    1.6452688 -0.0024572887    2.3438521    4.8080323 0.0062478262 
  108000    1.6600988 -0.0051818152    2.3243256     4.808015 -8.0576165e-05 
  108200    1.6321832 -0.0042614184    2.3653151     4.808073 0.0020344435 
  108400    1.6563824 -0.0046378234    2.3292476    4.8079092 0.0023200576 
  108600    1.6273476 -0.0051880759    2.3741674     4.808749 -0.0085601471 
  108800    1.6554768 -0.0055528756    2.3324049    4.8087938  0.002148051 
  109000    1.6292083 -0.0070661793    2.3734253    4.8089183  0.002255867 
  109200     1.657293 -0.0065788642    2.3311182     4.809204  0.010797767 
  109400    1.6330002 -0.0088332981    2.3699608    4.8093716 0.00086570914 
  109600    1.6324126 -0.0085890118    2.3712454    4.8100195 0.0064879223 
  109800    1.6568706 -0.010366111    2.3356413    4.8093065 -0.0002063117 
  110000    1.6481128 -0.0070912047     2.346029    4.8098392 0.0035329287 
  110200     1.622117 -0.0092311582    2.3871985     4.809895 0.0036324906 
  110400    1.5927286 -0.0060067382     2.428289      4.81015 0.0034231671 
  110600     1.633538 -0.0079157806    2.3686891    4.8098238 -0.00079740274 
  110800    1.6435541 -0.0085678781    2.3544212    4.8099201 0.0027770918 
  111000    1.5998668 -0.0062784311    2.4179658     4.810257 0.00023727655 
  111200    1.6714233 -0.0076743995    2.3119121     4.810087 0.0053488451 
  111400    1.6336831 -0.0090672575    2.3701049    4.8103057 0.0021494756 
  111600    1.6326601 -0.0088748173    2.3719174    4.8107768 0.0092729185 
  111800    1.6658827 -0.0093266465    2.3228751     4.811091 0.0042611086 
  112000    1.6150154 -0.0091164566    2.3987879    4.8109523 -0.0090882292 
  112200    1.6530996 -0.0066679019    2.3392291     4.810939 0.0074208365 
  112400     1.645291 -0.0059748902    2.3506226    4.8113185 0.0079982936 
  112600    1.6506019 -0.0071233968    2.3438032     4.811313 0.0015886511 
  112800    1.6257562 -0.0074095299    2.3819216    4.8118958 0.0060168435 
  113000    1.5969682 -0.0069213371    2.4247372    4.8120397 -0.003295837 
  113200    1.5994136 -0.0052712757    2.4200424    4.8126612 -0.001474874 
  113400    1.6126799 -0.0063435885    2.4009632     4.812399  0.006882045 
  113600    1.6427015 -0.0068745388    2.3563873    4.8123014 0.0052591434 
  113800    1.6249867 -0.010471561    2.3868265     4.812585 0.00071423768 
  114000    1.6436009 -0.0094186255    2.3576876     4.812406 0.00035635433 
  114200    1.6549493 -0.011275222    2.3431219    4.8129976  0.001100095 
  114400    1.6446185   -0.0142369    2.3616648    4.8130905 0.0033303543 
  114600     1.609589 -0.013450066    2.4136505    4.8133458 0.0034414791 
  114800    1.6010289  -0.01195564    2.4257457    4.8141019 -0.0038663516 
  115000    1.6564481 -0.013625787    2.3440716    4.8138437 0.00088683204 
  115200    1.5987629 -0.011321876    2.4288993    4.8144919 -0.00012525759 
  115400    1.6100539 -0.010120092    2.4109415    4.8146638 0.0010005456 
  115600    1.6276397 -0.013180685    2.3876732       4.8147 0.0048630179 
  115800    1.6062633 -0.014693771    2.4213854     4.814851 -0.0015293837 
  116000    1.6066212 -0.011882864    2.4182013    4.8150143 0.0004295454 
  116200    1.6462951 -0.011445543     2.358112    4.8148426 0.0010848432 
  116400    1.6458036 -0.011252165    2.3591654    4.8153526 0.0047672695 
  116600     1.626042 -0.012626592    2.3900672    4.8152527 0.0058848477 
  116800    1.6511875  -0.01117264    2.3511074    4.8154459 -0.00032029232 
  117000    1.6360801  -0.01230998    2.3754725    4.8160241 -0.0013908729 
  117200    1.6307175 -0.0081626849    2.3795573    4.8162165 0.0010273693 
  117400    1.6564567 -0.0075447887    2.3403556    4.8162218 -0.0028231848 
  117600    1.6134012 -0.0077193032    2.4055861    4.8167276 0.00033430594 
  117800    1.6846281 -0.0073813885    2.2984416    4.8167065 0.0087589029 
  118000    1.6498198 -0.007129061    2.3507058    4.8170374 0.0012447781 
  118200    1.5850143 -0.0073341668    2.4487855    4.8177535  -0.00287399 
  118400    1.6454414 -0.008418926     2.358732    4.8172094 0.0051831402 
  118600    1.6165699 -0.010866058    2.4044286    4.8171738 -0.0041996685 
  118800    1.6385016 -0.0099386889    2.3706952    4.8172485 -0.0037274917 
  119000    1.6680203 -0.010008899    2.3269963    4.8177348  0.011636956 
  119200    1.6620742 -0.011466722    2.3372458    4.8176118 0.0034121773 
  119400    1.6331158 -0.010864269    2.3802809     4.817834 -0.0069912342 
  119600    1.6288032 -0.010878149    2.3873745    4.8184481 0.0061921991 
  119800    1.6424598 -0.0056461478    2.3612755    4.8180557 0.0094952055 
  120000     1.633251 -0.0086461445     2.378111     4.818085 -0.0013018833 
  120200    1.6275371 -0.009258025    2.3874704     4.818266 -0.0045660165 
  120400     1.672883 -0.0073815607    2.3174682    4.8181242 -0.0026652873 
  120600    1.6214515 -0.012194038    2.3998115    4.8185475 -0.0043815366 
  120800    1.6563629 -0.010776387    2.3463001     4.818794 0.0058478838 
  121000    1.6481997 -0.011410611    2.3584699     4.818091 0.0031539612 
  121200    1.6231562 -0.0070911537     2.391889    4.8182836 -0.0015144499 
  121400    1.6514076 -0.0068456323    2.3496411    4.8186366 0.0015249765 
  121600    1.6305768 -0.0081038659    2.3823046    4.8188117 0.0045619711 
  121800    1.6061992 -0.0064858612    2.4179627    4.8195402 0.00044899381 
  122000     1.654591 -0.0062901013    2.3444951    4.8188187 0.0036083013 
  122200    1.6285308 -0.0067468364    2.3844857    4.8192824 0.0004402627 
  122400    1.6267218 -0.0070707001    2.3876345    4.8193952 -0.00092119261 
  122600    1.6488321 -0.0072013322    2.3547484    4.8195268  0.011217978 
  122800      1.63008 -0.0070120827    2.3830837    4.8199377 0.0015405171 
  123000     1.633019 -0.0047084072    2.3764835    4.8200475 -0.010226489 
  123200    1.6225926 -0.007121331    2.3945972    4.8201167  -0.00153074 
  123400    1.6218792 -0.0076914251    2.3966191    4.8204989 0.0032537017 
  123600    1.6187619 -0.0048938386    2.3982141     4.820218 -0.0033838284 
  123800    1.6811137 -0.0071780341    2.3070509    4.8202502 -0.0027575115 
  124000    1.6314864 -0.0058508855    2.3806398    4.8207636 0.0097480073 
  124200    1.6272553 -0.0042967746    2.3854675    4.8208021 -0.0033968183 
  124400    1.6396399 -0.0044246557    2.3671851     4.820959 0.0025943238 
  124600    1.6400566 -0.0051949853    2.3671372    4.8207655 0.0028628119 
  124800    1.6261298 -0.0059256663    2.3888961    4.8209143 -0.0034031758 
  125000    1.6329056 -0.0069570347    2.3798342    4.8209796 0.0060095053 
  125200    1.6477503 -0.0071766615     2.358225    4.8214062 0.0056183953 
  125400    1.6364037 -0.0078431399    2.3759985    4.8215021  -0.00301682 
  125600    1.6336085 -0.008827769     2.381843    4.8221714 -0.00027986026 
  125800    1.6546248 -0.0070217634    2.3485246    4.8221672 -0.001176552 
  126000    1.6514849 -0.0088190959    2.3551144    4.8222523 0.0041434351 
  126200     1.631855 -0.007107806    2.3832486     4.822668 0.00039734913 
  126400    1.6683486 -0.0085575112    2.3301816    4.8228636 -0.0099829592 
  126600    1.6487743 -0.0085170524     2.359694    4.8230702 -0.0058704303 
  126800    1.6131255 -0.005176704    2.4104034    4.8236741 0.0033199136 
  127000    1.6200122 -0.0073100653    2.4018669     4.823329 0.0035506745 
  127200    1.6430074 -0.0087394171    2.3687781    4.8232859 0.0028588018 
  127400    1.6411713 -0.0087194578    2.3711149    4.8228899 -0.0038359163 
  127600    1.6394737 -0.0081256267    2.3739106    4.8237344 0.0020878484 
  127800     1.623485 -0.0064880142    2.3963484     4.823839 0.0012398903 
  128000    1.6355686 -0.0054087088    2.3777281    4.8244141 -0.0029019308 
  128200    1.6874788 -0.0040621487    2.2981162    4.8239742 0.0026641506 
  128400    1.6495081 -0.0064538331    2.3580545     4.824594 0.0019195964 
  128600    1.6750741 -0.0057933592    2.3192275    4.8247567 0.0010342056 
  128800    1.6368987 -0.0050637625     2.375863    4.8248881 -0.004030722 
  129000    1.6204476 -0.0034130945    2.3994586    4.8254705 -0.00087007627 
  129200    1.6718086 -0.0057735774    2.3243018    4.8249551  0.013923658 
  129400    1.6153756 -0.0055304815     2.409207    4.8254973 -0.0024884153 
  129600    1.6588454 -0.0042431464    2.3426499    4.8253988 0.0033148566 
  129800    1.6650822 -0.0063095857    2.3358051     4.825838 -0.00075680461 
  130000    1.6291831 -0.0085777119    2.3920097    4.8259533 -0.0039295399 
  130200    1.6554524 -0.0093008304    2.3533945    4.8259988 0.0029968579 
  130400    1.6205315 -0.0083804019     2.405801    4.8269713 0.0050542428 
  130600    1.6474447 -0.0090420793    2.3660676    4.8269254 -0.0058576998 
  130800    1.6813511 -0.0070393797    2.3133078    4.8270017 0.0012024376 
  131000     1.635969 -0.006821652    2.3813545    4.8272279 -0.002586092 
  131200    1.6067959 -0.0064839812    2.4253281    4.8278019 -0.005214566 
  131400    1.6318021 -0.0064783758    2.3874954    4.8274649 0.0066531198 
  131600    1.6169138 -0.0057131348    2.4093263    4.8277401 -0.0041413897 
  131800    1.6540472 -0.0059178861    2.3538735     4.827754 -0.0021246716 
  132000    1.6391961 -0.0062870965    2.3767063    4.8279524 -0.0003080506 
  132200    1.6045906 -0.0075564286    2.4301165    4.8282116 -0.0010490318 
  132400    1.6658238 -0.0095766482    2.3406101    4.8284877 0.0058874349 
  132600    1.5830183 -0.0089423964    2.4644287     4.828796 -0.0072297942 
  132800    1.6183901 -0.0089940196    2.4118209    4.8291672 -0.002379625 
  133000    1.6374929 -0.007261313    2.3816897     4.829408 -0.001347097 
  133200    1.6932886 -0.0063442169    2.2966382    4.8289244 0.0017010025 
  133400    1.6516797 -0.007339648     2.360494    4.8294034  0.006126328 
  133600    1.6270397 -0.0093653436      2.39941    4.8293526 0.00082609344 
  133800    1.5983965 -0.0093630564    2.4433401    4.8303424 -0.007351239 
  134000    1.6898597 -0.0098432085    2.3064647    4.8301111 -0.00086903889 
  134200    1.6406325 -0.0072279089    2.3783352     4.830794 0.0038054797 
  134400    1.6465071 -0.0072157852     2.369277    4.8305554 0.0035570681 
  134600    1.6557696 -0.0086101206    2.3570062    4.8307768 -0.0065411307 
  134800    1.6591291 -0.0080945497    2.3518122    4.8311351 -0.0019486704 
  135000     1.633981 -0.010620319    2.3920971    4.8311914 0.0026186405 
  135200    1.6466098   -0.0111151    2.3740132    4.8315463 0.0047571165 
  135400    1.6407693 -0.0093482076    2.3811626    4.8317063 -0.0057220788 
  135600    1.6318711 -0.009012466    2.3943147    4.8318536 -0.0024402067 
  135800     1.647398 -0.0064354088    2.3688701    4.8322645 0.0019654834 
  136000    1.6317731 -0.0065249281    2.3924792    4.8323586 0.0028692279 
  136200    1.6093425 -0.0069733645    2.4273526    4.8331551 -0.0017280899 
  136400    1.6423262 -0.0069853181    2.3772227    4.8324633 -0.0013848166 
  136600    1.6171677 -0.0072161353    2.4158618    4.8331533 0.0012372225 
  136800     1.644985 -0.0061234067    2.3734648    4.8335534 0.0057002467 
  137000    1.6579952 -0.010583339    2.3583987    4.8335328 0.0017309726 
  137200    1.6090626 -0.0089922255    2.4306542    4.8340181 -0.0033207826 
  137400    1.6118914 -0.0093649324    2.4272237     4.834456 -0.0025739229 
  137600    1.6531621 -0.0055766723    2.3617155    4.8346104 0.0083766057 
  137800    1.6543832 -0.0058570867    2.3599373    4.8343825 -0.0064569446 
  138000    1.6658157 -0.0050392695    2.3423528    4.8347557 0.0073171563 
  138200    1.6480745 -0.0076039523    2.3720503    4.8352904 0.00088774935 
  138400    1.6266408 -0.0071528413    2.4041718    4.8357288 -0.0026588389 
  138600    1.6614206 -0.0073772396    2.3524043    4.8358799 0.0014237375 
  138800    1.6598538 -0.0069735165    2.3545006     4.836031 0.0029633864 
  139000    1.6605129 -0.0077179299       2.3541    4.8358741 0.0016096478 
  139200    1.5889293 -0.0061960892     2.460248    4.8362237 0.0033473128 
  139400    1.5767687 -0.0060173979     2.478227    4.8361497 -0.0056224899 
  139600    1.6444819 -0.004023852    2.3745827    4.8360166 0.0096862467 
  139800    1.6348813 -0.0069902851    2.3926215    4.8366956 0.0022159645 
  140000    1.6543532 -0.0097189302    2.3661787    4.8367169 0.00016700052 
  140200    1.6355754 -0.0096541134     2.394592    4.8370428 -0.0042249999 
  140400    1.6704869 -0.0082091936    2.3407336    4.8369697 -0.0027307743 
  140600    1.6428716 -0.0086507373     2.383036     4.837429 0.00026868489 
  140800    1.6447951 -0.0066631325    2.3783695    4.8376338 0.0077502717 
  141000    1.6132296 -0.0097668779      2.42897    4.8378065 -0.0086085477 
  141200    1.6673653 -0.010626525    2.3485868    4.8377256 -0.0012979943 
  141400    1.6568531 -0.010108442    2.3642507    4.8381473 0.0033441965 
  141600    1.6326994 -0.010743053    2.4010581    4.8381082 -0.00091489053 
  141800    1.6650593 -0.010744639    2.3523873    4.8379508  0.002354757 
  142000    1.6137102 -0.0094614416     2.428917    4.8387796 -0.0069494474 
  142200    1.6015516  -0.00910025    2.4472726    4.8392678 0.00090653568 
  142400    1.6711649 -0.012718222    2.3459776    4.8387213 -0.00084038851 
  142600    1.6047167 -0.011782974     2.445224    4.8392817  -0.00590655 
  142800    1.6346591 -0.011059218      2.40017     4.839842 0.0016769338 
  143000     1.594249 -0.011131398    2.4607405    4.8397563 -0.0048447344 
  143200    1.6357518 -0.0054333177    2.3930735    4.8400096 -0.0016209604 
  143400    1.6210518 -0.010390549    2.4197521    4.8396924 -0.0034730008 
  143600    1.5901697 -0.012458056    2.4684834    4.8400567 -0.0002150616 
  143800    1.6275797 -0.010825387    2.4108113    4.8401034 0.0024385229 
  144000    1.6536591 -0.011076521    2.3720042    4.8401444 7.9602497e-05 
  144200    1.6680732 -0.010251958    2.3498165    4.8403912 -0.006475103 
  144400    1.6338833 -0.0077737033    2.3993064    4.8411008 -0.004653406 
  144600    1.6378203 -0.0087934271    2.3945451    4.8412223 -0.0063497516 
  144800    1.6774007 -0.011161203    2.3367979    4.8404474 0.0041987022 
  145000    1.6477999 -0.014731456     2.385258    4.8409589 -0.0059502206 
  145200    1.6056804 -0.013210401     2.447545      4.84162 -0.010574877 
  145400    1.6498361 -0.013516613    2.3813171    4.8412855 0.0032747803 
  145600    1.6323344 -0.011368802    2.4057857    4.8416629 0.0066833052 
  145800     1.685935 -0.010345664    2.3243767    4.8416366 0.0019840144 
  146000    1.6167005 -0.0098231292    2.4283054    4.8422893 -0.0043547216 
  146200    1.6442397 -0.011247495    2.3883463    4.8421936 -0.0011854629 
  146400     1.664096 -0.011692564    2.3588921    4.8420634 -0.00024369107 
  146600    1.6655165 -0.014127281    2.3595996    4.8424658 0.0049663147 
  146800    1.6978293 -0.011001663    2.3083674    4.8428038 0.0043904141 
  147000     1.630456 -0.011064803     2.409779     4.843144 0.00013887265 
  147200    1.6638821 -0.013255821    2.3619193    4.8432068 0.0020833124 
  147400    1.6269553 -0.012072353    2.4165555    4.8436646 -7.6727637e-05 
  147600    1.6030089 -0.0076963148    2.4485468    4.8441308 0.0023210758 
  147800    1.6059439 -0.0073891258    2.4437968    4.8440882 0.0042043555 
  148000     1.616543 -0.0097127541     2.430467    4.8443253 -0.0083295329 
  148200    1.6397694 -0.0095096199    2.3952631    4.8441462 0.0046730176 
  148400     1.713691 -0.010481834    2.2852967    4.8440331 0.0031942766 
  148600    1.6315464 -0.0084912958    2.4071263    4.8446995 -0.0076108601 
  148800    1.6940815 -0.0081582802    2.3126098    4.8442706 0.0035555405 
  149000    1.6451797 -0.0072883165    2.3858509    4.8450665 -0.004188805 
  149200    1.6357566 -0.011539858    2.4042925    4.8451291 -0.00051426946 
  149400    1.6569893 -0.0070552222    2.3680296    4.8451837 0.0048222609 
  149600    1.6244604 -0.0076788394    2.4173864    4.8451487 0.0025873719 
  149800    1.6659594 -0.0068946876    2.3541923    4.8449552 0.0024376685 
  150000    1.6448456  -0.00561514    2.3861385    4.8465265 0.00096241992 
  150200    1.6852537 -0.0098165772    2.3291818    4.8459494 0.00014888555 
  150400    1.6836448 -0.0081704401    2.3302859    4.8462875 0.0031042222 
  150600    1.6625856 -0.0091243785    2.3629999     4.846475 -0.0017118807 
  150800    1.6557009 -0.008151023    2.3722399    4.8463667 0.0040213671 
  151000    1.6434044 -0.0095188299    2.3923439    4.8466676 0.0011258655 
  151200    1.6305828 -0.011304784    2.4138289     4.847144 0.0024992059 
  151400    1.6259816 -0.009561935    2.4192387    4.8473984 -0.0067689726 
  151600    1.6544671 -0.0093520547    2.3763784    4.8474543 0.0034337105 
  151800    1.6429548 -0.0097787645    2.3935988    4.8469885 0.00063376244 
  152000    1.6086034 -0.0059352095    2.4416847    4.8474172 0.0033566233 
  152200    1.6195135 -0.0062447161    2.4257597    4.8475395 -0.0027401358 
  152400    1.6429684 -0.0066936951    2.3908782    4.8473733 0.00015418865 
  152600    1.6393848 -0.0052466947    2.3952612    4.8478306 0.0035267588 
  152800     1.605648 -0.0053417504     2.446002    4.8478971  0.004289949 
  153000    1.6468514 -0.0045447547    2.3836334    4.8480989 -0.004125144 
  153200    1.6546393 -0.0058877018    2.3736217    4.8484201 0.0025650573 
  153400    1.5877661 -0.0036442815    2.4721535     4.848937 0.0061633245 
  153600     1.643998 -0.0046942061    2.3888362    4.8488743 4.323635e-05 
  153800    1.6178132 -0.002508705    2.4263068    4.8492735 -0.0041211388 
  154000    1.6536019 -0.0040426268    2.3741521    4.8492403 0.0028762609 
  154200    1.6347765 -0.003543807    2.4022257    4.8495891 5.4391686e-05 
  154400     1.644033 -0.0047879698    2.3896012    4.8495981 0.0052907951 
  154600    1.6349428 -0.0044205096    2.4034986    4.8502346 0.0030295318 
  154800    1.6363481 -0.0048526064    2.4018989    4.8503098 -0.0010059638 
  155000    1.6682119 -0.0052743669    2.3538943    4.8496546 0.00089561996 
  155200    1.6299305 -0.0056435777    2.4124904    4.8504888 -0.0053944692 
  155400    1.6395647 -0.0048734881    2.3972884    4.8505008 -0.0053326553 
  155600      1.61708 -0.004908528    2.4307624      4.85023 0.0021112915 
  155800     1.648194 -0.0062736142    2.3854945    4.8502441 -0.0025625586 
  156000    1.6463539 -0.0060378828    2.3878912    4.8501178 0.0010513818 
  156200    1.6675703 -0.005293127    2.3557183    4.8504978 -0.0013273779 
  156400     1.645049 -0.0035873668    2.3885121    4.8512328 -0.0064435581 
  156600    1.6611669 -0.0060889967    2.3665985     4.850982 0.0033917544 
  156800    1.6042643 -0.0065863164    2.4527148    4.8512909 1.5023853e-05 
  157000     1.681007 -0.0059904147    2.3370038    4.8512308 0.0022929633 
  157200    1.6300618 -0.0071594442     2.415333    4.8520123 -0.0077431682 
  157400    1.6974207 -0.0058298623    2.3126008    4.8515963 0.0061166226 
  157600    1.6755008 -0.0043568077    2.3445287    4.8521342 -0.0049904216 
  157800    1.6735595 -0.0034314204    2.3463848    4.8520052 0.00084612688 
  158000    1.6595273 -0.0026488307    2.3669095     4.852275 -0.0081366329 
  158200    1.6275623 -0.0054983555     2.417868    4.8524611 -0.0013529313 
  158400    1.6734312 -0.0079121131    2.3517007    4.8526481 0.0088053559 
  158600     1.603131 -0.0092081137    2.4586414    4.8528966 -0.0060445811 
  158800    1.6819478 -0.0067350202    2.3379542     4.852847 -0.00058283742 
  159000    1.6298501 -0.0060491183     2.415671    4.8531433 0.0023370887 
  159200    1.6531853 -0.0065003521    2.3814717    4.8534776  0.013731093 
  159400    1.6667731 -0.0056435227    2.3605094    4.8537434 0.0027654189 
  159600    1.6631301 -0.0055651036    2.3659566    4.8538074 -0.0020857933 
  159800    1.6340121 -0.006366758    2.4106736    4.8540682 -0.00099940266 
  160000    1.6522238 -0.0095043474    2.3866803    4.8542407 0.0016888705 
  160200    1.6511727 -0.011695791     2.390264    4.8540571 -0.0022044081 
  160400    1.6527882 -0.0096582716    2.3861226    4.8543753 -0.010060755 
  160600    1.6587409 -0.0089769214     2.376922    4.8547805 -0.0038196008 
  160800    1.6540662 -0.0086623268    2.3836152    4.8547798 0.0094400995 
  161000    1.6349884 -0.0084503056    2.4119747    4.8547493 0.0030904411 
  161200    1.6848734 -0.006003238    2.3350822     4.855093  0.006944647 
  161400    1.6537106 -0.0058237067    2.3820984    4.8555685 -0.017811425 
  161600    1.6584578 -0.0061626295    2.3753959    4.8556443 -0.0021981212 
  161800      1.65657 -0.003036549     2.375474    4.8560182 0.0078076406 
  162000    1.6267379 -0.0072139866    2.4243057    4.8559472 -0.00082062747 
  162200    1.6491704 -0.0070833906    2.3906859    4.8560895 -0.002756684 
  162400    1.6107175 -0.0067808336    2.4488775    4.8569339 0.00040357124 
  162600    1.6443874 -0.0057876744     2.397463    4.8569915 0.0010782967 
  162800    1.6657712 -0.0058213942     2.365324    4.8568781 0.0049935704 
  163000    1.6668292 -0.0046882832    2.3628277     4.857101 0.0061483176 
  163200    1.6446444 -0.0023121878    2.3939721    4.8573613  0.008211292 
  163400    1.6523259 -0.0015952938     2.381695    4.8573175  0.003076847 
  163600    1.6327175 -0.0035478671    2.4134468    4.8577192 0.00027963597 
  163800    1.6072182 -0.0025871648    2.4510213    4.8580251 -0.0037773368 
  164000    1.6835648 -0.0034897122    2.3371082    4.8576706 0.0039010889 
  164200    1.6564305 -0.0030948925    2.3782274     4.858504 -0.00060637325 
  164400    1.6330066 -0.0054160882    2.4155059    4.8583435 -0.0013228516 
  164600    1.6571695 -0.0047444424    2.3785621    4.8582972 -0.0056993176 
  164800    1.6594619 -0.0058365538    2.3765948    4.8586745 -0.00094699004 
  165000    1.6356949 -0.0050869353     2.411849    4.8590462 -0.0053652633 
  165200    1.6575478 -0.005164609     2.379207    4.8590891 -0.0032811681 
  165400    1.6715944 -0.0055255785    2.3578943    4.8584746 0.0019652283 
  165600    1.6844047 -0.006773196    2.3405026    4.8590407 1.0479593e-05 
  165800    1.6548147 -0.0078797178    2.3858439    4.8589133  0.010645712 
  166000    1.6637713 -0.010482985    2.3753123    4.8592065 0.00090943441 
  166200    1.6559501 -0.0072341149    2.3840807     4.859498 0.0071767531 
  166400     1.652633 -0.0046197355    2.3869329    4.8599913 0.0010526305 
  166600      1.62519 -0.0051238342    2.4293345    4.8607454 -0.0013460862 
  166800    1.6479312 -0.0053563197    2.3953428    4.8606157 0.0035953305 
  167000    1.6215355 -0.0052099026    2.4349242    4.8607702 0.0012127862 
  167200    1.6189888 -0.0021849899    2.4361695    4.8612224 -5.2558092e-05 
  167400    1.6337566 -0.0036817229    2.4154894    4.8611858 -0.0024970034 
  167600    1.6467466 -0.0057409494    2.3986119    4.8617241 0.0012698786 
  167800    1.6621347  -0.00551583    2.3747003    4.8611079 0.0059351049 
  168000    1.6463609 -0.004650678    2.3994168    4.8630411 0.0023786093 
  168200    1.6575864 -0.0065840323    2.3848139    4.8633343 -0.0012005309 
  168400    1.6512652 -0.0054266705    2.3932773    4.8634782  0.001821229 
  168600     1.692076 -0.0061332235    2.3328353    4.8635145 -0.0005065398 
  168800    1.6629828 -0.005192711    2.3758008     4.863803 -0.0099165188 
  169000    1.6408202 -0.0062373767     2.410363    4.8640938 -0.004962956 
  169200    1.6530283 -0.0049717611    2.3906715    4.8639706 0.0067621925 
  169400    1.6651249 -0.0053690162    2.3730704    4.8641079 0.0093050453 
  169600    1.6499594 -0.0047567408    2.3951699    4.8640831 -0.00011525945 
  169800    1.5925469 -0.0053574816    2.4822665    4.8645044 -0.0085088756 
  170000     1.654072 -0.0059296165    2.3905621    4.8644681 0.0017464622 
  170200    1.6598386 -0.0029410838    2.3788234    4.8643635 0.0059459435 
  170400     1.647708 -0.0048875782    2.3996406    4.8650475  0.013677293 
  170600    1.6315899 -0.0057386574    2.4243876    4.8647788 7.9902934e-05 
  170800    1.6430246 -0.0051544958    2.4070901    4.8652087 0.00022542505 
  171000    1.6184725 -0.0040632729    2.4431632    4.8655637 -0.0026791721 
  171200    1.6316635 -0.0049766554    2.4244452    4.8657087 -0.0024726895 
  171400    1.6313677 -0.0040593474    2.4239202    4.8656574 -0.020920723 
  171600     1.672296 -0.0005469554    2.3597256    4.8663362 0.0050948739 
  171800    1.6627706 -0.0035346258    2.3766419     4.865984 0.0043285624 
  172000    1.6285382 -0.0033858047    2.4280052    4.8661739 -0.0043597979 
  172200    1.6620982 -0.0038246167    2.3781643    4.8662084  0.010798689 
  172400    1.6356457 -0.0049622525    2.4190496    4.8662977 -0.00080338956 
  172600    1.6510962 -0.0034587754    2.3947375     4.866653 -0.0018695409 
  172800     1.637943 -0.0043564913    2.4154492    4.8667472 0.0062876385 
  173000    1.6779657 -0.004174046    2.3555207    4.8670044 0.0074032882 
  173200    1.6395844 -0.0040984192    2.4132834    4.8673004 -0.00067342348 
  173400    1.6336563 -0.0034608628     2.421848     4.867615 -0.00059775617 
  173600    1.6712413 -0.0062971142    2.3684075    4.8676867 -0.0036062684 
  173800     1.653855 -0.0074738557    2.3959453    4.8679817 0.0076682654 
  174000    1.6524064 -0.008157539    2.3988176    4.8679986 0.0066234821 
  174200    1.6348265 -0.0092557398    2.4262513    4.8679778 -0.0014954961 
  174400    1.6455864 -0.0071355374    2.4083817    4.8683599 -0.0039046744 
  174600    1.6462795 -0.0064859692     2.406702     4.868369 -0.0025808733 
  174800    1.6600001 -0.0049419468     2.384426    4.8682072 -0.00095256457 
  175000    1.6369289 -0.0064906753    2.4207653    4.8684088  0.002885689 
  175200    1.6101849 -0.0062823318    2.4616556     4.869412 -0.0029610501 
  175400    1.6520283 -0.008124105     2.400646    4.8692936 -0.0046031741 
  175600    1.6712084 -0.0049985737    2.3687336     4.869262 -0.0045011918 
  175800    1.6617389 -0.0036243798    2.3821455    4.8698512   0.00135579 
  176000    1.6429429 -0.0050320876    2.4116083    4.8697268  0.004398723 
  176200    1.6839849 -0.0042761228    2.3500537    4.8704596 0.0046932749 
  176400    1.6658609 -0.0058010936    2.3782292    4.8699379 0.0042396201 
  176600    1.6744922 -0.0080916685    2.3674978    4.8698563 0.0037264356 
  176800    1.6474157 -0.0057830231    2.4064051    4.8704784 0.0020588839 
  177000    1.6674654 -0.0046210597    2.3748714    4.8701657 0.0067443302 
  177200    1.6736796 -0.0051775093    2.3659603    4.8700147 -0.0071740796 
  177400    1.6475103 -0.0034524143    2.4044697    4.8710155 -0.0050787338 
  177600    1.6549861 -0.0060578905    2.3955239    4.8706721 -0.00030360624 
  177800    1.6278798 -0.0074220386    2.4378324    4.8709778 0.00027003055 
  178000    1.6509947 -0.0066072705    2.4024049    4.8710196  -0.00118289 
  178200    1.6941433 -0.0065671845    2.3374203    4.8707649 -0.010648345 
  178400    1.6514254 -0.0068880309     2.402111    4.8710908 -0.00093973278 
  178600    1.6490557 -0.005714934    2.4047367    4.8713369 0.0053482811 
  178800    1.6409405 -0.0051868914     2.417134    4.8720955 0.0071384114 
  179000    1.6423372 -0.0054722967    2.4154062    4.8721763 -0.00090668151 
  179200    1.6624585 -0.0061892642    2.3857981    4.8720177 -0.0039251158 
  179400    1.6495331 -0.0066157409    2.4060412    4.8724562    0.0041987 
  179600     1.702895 -0.0063399635    2.3411762    4.8878688 -0.00021619157 
  179800    1.6479536 -0.0059113759    2.4235005    4.8882518 -0.0055844149 
  180000    1.6558451 -0.0047102387    2.4105723     4.888356  0.003529281 
  180200    1.6530453 -0.0072759132    2.4178117    4.8888322 -0.0026977442 
  180400     1.666318 -0.0099058537    2.4007155    4.8890048 0.0091523165 
  180600    1.6029262 -0.010459551     2.496717    4.8894136 -0.0070246686 
  180800    1.6890054 -0.0082639957    2.3653018    4.8892467 -6.5738361e-05 
  181000    1.6554424 -0.0064315671    2.4139323     4.889391 0.00044133878 
  181200    1.6693867 -0.0080422021    2.3950954    4.8898491 0.0069210018 
  181400    1.6501039 -0.0065088163    2.4225281    4.8899058 -0.00089033659 
  181600    1.6543533 -0.0060249961    2.4160323    4.8902647 0.0096039947 
  181800    1.6650256 -0.0054435764    2.3996012    4.8904152  0.011153207 
  182000    1.6513696 -0.0080945889    2.4230868    4.8907763 -0.0072637072 
  182200     1.678948 -0.007913972    2.3812834    4.8904999 0.0042105302 
  182400    1.6969374 -0.010661271    2.3572848    4.8907242 0.0007070402 
  182600    1.6464371 -0.010122966    2.4327284    4.8909946 0.0032870089 
  182800    1.6370613 -0.0083502161    2.4453013    4.8912837 0.0013278184 
  183000    1.6403536 -0.0060997835    2.4394751    4.8926439 0.00020376442 
  183200    1.6446907 -0.007430285    2.4342814    4.8926221 -0.0047595593 
  183400    1.6267228 -0.0093636135    2.4633071    4.8927763 0.00045849103 
  183600    1.6852361 -0.0098292467    2.3757873    4.8925159 0.0093136666 
  183800    1.6689578 -0.0095411356    2.3999534    4.8925652 0.0043201113 
  184000    1.6644959 -0.008908523    2.4060371    4.8925921 0.00060397827 
  184200    1.6747518 -0.0092966879    2.3914078    4.8929505 0.0085430011 
  184400    1.6810121 -0.0085985288    2.3812297    4.8928562 0.0053214165 
  184600    1.6266917 -0.0091741248    2.4634674    4.8930794 -0.0024026542 
  184800    1.6715559 -0.0096097887     2.397117    4.8935553 0.0046596863 
  185000    1.6496612 -0.0087164742    2.4292971    4.8938034 0.0015996883 
  185200     1.644055 -0.0082571803    2.4373611    4.8939218 -0.0070066643 
  185400    1.7088294 -0.0084215147    2.3401892    4.8936974  0.006108854 
  185600    1.6747347 -0.0082876546    2.3915054    4.8940316 0.0028553038 
  185800    1.6519649 -0.005779214    2.4233525    4.8942499 0.0058685506 
  186000    1.6455301 -0.0099236541    2.4374353     4.894541 0.0026135668 
  186200    1.6682204 -0.0076145946     2.401195    4.8946278 0.0051080961 
  186400    1.6394658 -0.0078919419    2.4451241    4.8951697 0.0048516018 
  186600    1.6666496 -0.0074828668    2.4035233    4.8947328 -0.0042714687 
  186800    1.6747303 -0.0048507942    2.3890613    4.8950177 -0.00084029849 
  187000    1.6316705 -0.0053111059    2.4545363    4.8954758 -0.0083511766 
  187200    1.6523213 -0.0068336396    2.4251866    4.8955639 0.00063469047 
  187400    1.6500032 -0.0072679365    2.4289337    4.8954014 0.0012188275 
  187600    1.6612088 -0.0067439954    2.4117772    4.8955686 -0.0027124052 
  187800    1.6444329 -0.0060236891    2.4363073     4.895668 0.0039033708 
  188000    1.6855673 -0.0045520695    2.3732997     4.895802  0.004263793 
  188200    1.6572683 -0.0065968419    2.4181895    4.8962203 -0.008499122 
  188400    1.6500653 -0.0088251043    2.4313723    4.8963759 -0.0048016555 
  188600    1.6536131 -0.010893905    2.4281601    4.8964138 0.0024542855 
  188800    1.6495767 -0.0082228718    2.4313457     4.896219 0.0040831754 
  189000     1.675763 -0.010169523    2.3942391     4.896425 0.0020132356 
  189200    1.6597705 -0.010374526    2.4186872    4.8966917 -0.0022405982 
  189400    1.7004953 -0.0090785672    2.3558929    4.8962492 0.0044146544 
  189600    1.6530653 -0.0092557443    2.4279213    4.8969919 3.5062651e-05 
  189800    1.6403306 -0.0083149615    2.4464775    4.8973967 -0.0016975686 
  190000    1.6605251 -0.0077865497    2.4158242    4.8975479 0.0085284114 
  190200    1.6902234 -0.0045786346    2.3685774    4.8980338  0.004524663 
  190400    1.6771247 -0.0050353415    2.3887847    4.8981463 -0.0005573495 
  190600    1.6744663 -0.0043205741    2.3915025    4.8975934   -0.0122715 
  190800    1.7169644 -0.0047038025    2.3285083    4.8979303 0.0052211673 
  191000    1.6410966 -0.0060423349    2.4441039    4.8984442 0.0010639059 
  191200    1.6707901 -0.0067659708    2.4005255    4.8986595 -0.0023024551 
  191400    1.6829682 -0.0068429283    2.3828225    4.8991374 0.0023848732 
  191600     1.660439 -0.0071528439    2.4171381    4.8993665 0.0010987248 
  191800    1.6564449 -0.0063574507    2.4226444    4.8996802 0.0035850948 
  192000    1.6658215 -0.0069098736    2.4091355    4.8996765 -0.0071835496 
  192200    1.6638433 -0.0064509231    2.4117905    4.8998247 -0.0072824461 
  192400    1.6613512 -0.0093254811    2.4186965    4.9001198 0.0038379809 
  192600    1.6709185 -0.0091101378    2.4041644    4.9001467 0.0076334457 
  192800    1.6593348  -0.01015063    2.4226907    4.9002659 0.0052948112 
  193000    1.7043596 -0.0096046008    2.3546448    4.9002686 -0.00065596429 
  193200    1.6505689 -0.0087614875    2.4350784    4.9009006 -0.00082326146 
  193400    1.6512905 -0.0063886267     2.431794    4.9010709 0.0067783362 
  193600    1.6606759 -0.0063006922    2.4178004    4.9012361 -0.0053800073 
  193800    1.6630584 -0.0058876475    2.4138885    4.9013091 -0.0028020665 
  194000    1.6414793 -0.0048913883    2.4455753    4.9016403 -0.0014701802 
  194200    1.6767566 -0.0064999582    2.3941627    4.9015078 0.0069584544 
  194400    1.6164183 -0.0092085149     2.487761    4.9019365 -0.0018616393 
  194600    1.6075711  -0.00672542    2.4988822    4.9022769 -0.0060059146 
  194800     1.664318 -0.0087766748    2.4155612    4.9019814  0.012565048 
  195000     1.651162 -0.0069335786    2.4335535    4.9020929 -0.0043573421 
  195200     1.641854 -0.0070230444    2.4479825    4.9024774 -0.0018612166 
  195400     1.661431 -0.0078286512    2.4195326    4.9025725 0.0047302299 
  195600     1.661623 -0.0070093582    2.4185071     4.902654 0.0044424793 
  195800    1.6713405 -0.0066227941    2.4036082    4.9027106 -0.0044845477 
  196000     1.690738 -0.0052279474    2.3727892    4.9023676 -0.00025969862 
  196200    1.6650081 -0.0045496949    2.4112071    4.9028888  0.001669519 
  196400    1.6582939 -0.005879106    2.4231115    4.9033977 1.4244118e-05 
  196600    1.6695878 0.00024646465    2.3996309    4.9029748  0.010241334 
  196800    1.6597968 -0.0035955593    2.4181001     4.902923 0.0070142968 
  197000    1.6558747 -0.0041205266    2.4247352    4.9031529  0.010239625 
  197200    1.6552951 -0.00068581226     2.422386    4.9033695 -0.0011259725 
  197400    1.6413971 -0.0040743364    2.4466324    4.9033911 -0.0026615079 
  197600    1.6801486 -0.0055220337    2.3899609    4.9033694 -0.00011641227 
  197800    1.6729201 -0.0021729768    2.3987349    4.9046552 -0.0052626901 
  198000    1.6285754 -0.0042366922    2.4669495    4.9043232 0.0026377565 
  198200    1.6555312 -0.0046454608    2.4270292    4.9044071 0.0027003626 
  198400     1.653476 -0.003817621    2.4296748    4.9047993 0.0016114662 
  198600    1.7678423 -0.001122654    2.3259551     4.975236 0.0048388517 
  198800    1.6691369 -0.0048527575    2.4878913    4.9854599 0.0018090585 
  199000    1.7136054 -0.0042629693    2.4204629    4.9852898 -1.5408115e-05 
  199200    1.6945477 -0.0045480244    2.4472655    4.9832356 0.0024684821 
  199400    1.6527541 -0.010101736    2.5180762    4.9858344 -0.0044527889 
  199600    1.6701944 -0.0071708065    2.4891403    4.9859764 0.0042149851 
  199800    1.6601428 -0.0066539391    2.5040015    4.9862847 0.0012925538 
  200000    1.6522516 -0.0039508105    2.5133661    4.9865217 -0.0058776258 
  200200    1.6948583 -0.0050640918     2.451048    4.9869676 -0.0020288118 
  200400    1.7010719 -0.0050563886    2.4412849    4.9865279 -0.0065883717 
  200600    1.7362123 -0.0026159658    2.3863195    4.9866863  0.011683123 
  200800    1.7152581 -0.0048093586    2.4196417    4.9864001 -0.0014968749 
  201000    1.7129259 -0.0051577786    2.4237754    4.9866888 0.0061699327 
  201200    1.6770717 -0.0047617864    2.4774464    4.9870022 0.0072733681 
  201400     1.711736 -0.0042800492    2.4253126    4.9873198 0.0046584356 
  201600    1.6808697 -0.0062632682    2.4732537    4.9870021 0.0028352794 
  201800    1.7102408 -0.0047669164    2.4278064     4.987085 0.00083206792 
  202000    1.6625631 -0.0064474106    2.5012968    4.9874152 -0.0026021903 
  202200    1.6862802 -0.0068353109    2.4662318    4.9875197 0.0001930863 
  202400    1.6797687 -0.0053949448    2.4745961    4.9875621 -0.0025019468 
  202600    1.7240535 -0.0066451842    2.4091479    4.9872569 0.0070455457 
  202800    1.7053201 -0.0083485256    2.4394804    4.9878003 -0.00020924816 
  203000    1.7157292 -0.0073519189    2.4350818    5.0000039 -0.0035355822 
  203200    1.7007152 -0.0069588805    2.4570784    4.9998841 -0.0055946131 
  203400    1.6848525 -0.0051244264    2.4793487     5.000207 0.00083279516 
  203600    1.7052425 -0.0057655709     2.449316    5.0001025 -0.0069182775 
  203800     1.691463 -0.0070708161    2.4717636    5.0005862 0.0036113734 
  204000    1.7263077 -0.0079545372    2.4198317    5.0000108  0.013747374 
  204200    1.6594084 -0.006718054    2.5202446    5.0013628 0.0010927752 
  204400    1.7160972 -0.006047893    2.4341529    5.0009307 -0.0051671866 
  204600    1.7042965 -0.0069401922    2.4526213    5.0008149 -0.00080175181 
  204800     1.667439 -0.0074005357    2.5086587     5.001134 -0.0018300059 
  205000     1.720198 -0.0085956035    2.4303306    5.0007088 -0.0015995379 
  205200    1.7034329 -0.0096619581    2.4566394    5.0008164 -0.0015614863 
  205400     1.680611 -0.011326655    2.4926211    5.0009182 0.00092855104 
  205600    1.7073434 -0.010257337    2.4624311    5.0118755 -0.00092756114 
  205800    1.6942909 -0.0087745968    2.4805567    5.0119151 -0.00020146642 
  206000    1.7446099 -0.0071891371    2.4033813     5.011765 0.0045222126 
  206200    1.7009388 -0.0076735478    2.4694701    5.0118963 -0.0078043756 
  206400    1.6753898 -0.0090089489    2.5096942    5.0124811 -0.011550073 
  206600    1.7157498 -0.0094974694    2.4498312    5.0126386 0.0068386861 
  206800    1.6881083 -0.0088048508      2.49044    5.0124991 -0.0036019573 
  207000    1.7197486 -0.0064948316    2.4406714    5.0124766 0.0010790025 
  207200    1.7265724 -0.0068027613    2.4316958    5.0134235 0.0026367911 
  207400    1.6917449 -0.0079786898    2.4853906    5.0137279 0.00017288055 
  207600    1.6907487 -0.0074119432    2.4865166    5.0139272 0.0028690645 
  207800    1.6945373 -0.0062570993    2.4795747      5.01382 0.0016844183 
  208000    1.7345122 -0.0050831664    2.4185345    5.0138854 0.0058302013 
  208200    1.7263438 -0.0061786298    2.4316477    5.0136567 0.0053584861 
  208400    1.6955123 -0.0054662735    2.4776619    5.0141599 0.00030650404 
  208600    1.7082138 -0.0058479536    2.4594243    5.0145831 0.00041329101 
  208800    1.6675424 -0.007264479    2.5221858    5.0149522 -0.0075984835 
  209000    1.7241718 -0.0076588928     2.437299    5.0145714 -0.0025656578 
  209200    1.7055821 -0.0065994625    2.4645026    5.0149643 -0.0037312196 
  209400    1.6702824 -0.0060341678    2.5173719    5.0154765 -2.856359e-05 
  209600    1.6776549 -0.0072981898     2.507607    5.0155006 -0.0029017312 
  209800    1.7508167 -0.0067012494    2.3966389     5.014816 -0.0003318722 
  210000    1.6852301 -0.0059733097    2.4953333    5.0159088 0.00052281706 
  210200    1.7324215 -0.0066396365     2.424792    5.0154519 -0.0022277545 
  210400    1.7211335 -0.0056251986    2.4405624    5.0153135 -0.0047553794 
  210600    1.6929958 -0.0063429607    2.4840919    5.0159403 -0.007542684 
  210800    1.7161452 -0.0065677312    2.4496882    5.0160181 0.0057087359 
  211000    1.7485284 -0.0055136883    2.3997614    5.0156953 0.0024396634 
  211200    1.7107448 -0.0069956317    2.4581445    5.0159501 -0.0049944214 
  211400    1.6955906 -0.0049602914    2.4785914    5.0157127 -0.0014957077 
  211600    1.6960097 -0.0056526496    2.4798134    5.0168706 0.00078520854 
  211800    1.7198448 -0.005766661    2.4439152    5.0165928  0.006706934 
  212000    1.6973983 -0.0081469229    2.4805482    5.0171931 -0.0052682733 
  212200    1.6933753 -0.0093733878     2.487595     5.016982 -0.0078434841 
  212400    1.7101681 -0.0087415621    2.4617779     5.016973 0.0023910107 
  212600    1.7156339 -0.0077327261    2.4522882    5.0166867 0.0047901811 
  212800    1.7062357 -0.0081494482    2.4668248    5.0167163 0.0026645526 
  213000     1.755712  -0.01053891    2.3951415    5.0168201 0.0060420247 
  213200    1.7014984 -0.010003474    2.4764644    5.0173997 -0.002730024 
  213400    1.6916007 -0.0073875211    2.4889992    5.0177115 0.0029539546 
  213600    1.7070615 -0.0067340571     2.465617     5.018162  0.005212894 
  213800    1.6638006 -0.0057004061    2.5299494    5.0186701 0.0040142617 
  214000    1.6499656 -0.0068306539    2.5522796    5.0191282 0.0022082184 
  214200    1.6830385 -0.0069078569    2.5026145    5.0189697 0.0046467462 
  214400     1.689075 -0.0079827835    2.4951468    5.0194772 0.0030060194 
  214600    1.7057447 -0.0074331852    2.4695893    5.0194611 -0.0028574138 
  214800    1.7198014 -0.0079529043    2.4487763    5.0192026 0.0034360677 
  215000    1.7156571 -0.0096708049    2.4571599     5.019655 -0.0034354673 
  215200    1.6800164 -0.0072643194    2.5085819    5.0200498 0.00094871991 
  215400    1.6782358 -0.011592731     2.515617    5.0200871 0.00096212121 
  215600    1.6998036 -0.0063344072    2.4836081    5.0256715 -0.0055835909 
  215800    1.6954551 -0.0071949903    2.4917379    5.0264215 0.0067725957 
  216000    1.6658107 -0.0074030677     2.536725    5.0267565 -0.0088161382 
  216200    1.7178121 -0.0077535788    2.4589023    5.0265455 0.0005996014 
  216400    1.7287713 -0.005431325    2.4400993     5.026495 -0.0026872036 
  216600    1.7184407 -0.0051822221    2.4555545    5.0267115 0.0012698526 
  216800     1.692377 -0.0055662981    2.4953423    5.0270397 0.0029783979 
  217000    1.6946094 -0.005483048    2.4924863    5.0276139 0.0010837187 
  217200    1.7266087 -0.0065916412    2.4452692    5.0272625 0.0061044732 
  217400    1.6531639 -0.0070555551    2.5564312    5.0278499 -0.0063813952 
  217600    1.7071616 -0.0056126407    2.4736268    5.0274434 0.0036035666 
  217800    1.6951612 -0.0049991874    2.4919017    5.0283403 0.0026339903 
  218000    1.6842177 -0.0044359302    2.5071376    5.0277327 0.0024176723 
  218200    1.6632618 -0.0057364609    2.5395024    5.0273792 0.0012138489 
  218400    1.7105368 -0.0059732262    2.4686977    5.0272139 -0.0076464329 
  218600    1.7144177 -0.0038071415    2.4614935    5.0279941 -0.0015765093 
  218800    1.6544176 -0.0027364295    2.5509265    5.0285438 -0.0026673084 
  219000    1.7315189 -0.0041414732    2.4368404    5.0286453 -0.0081973315 
  219200    1.7016955 -0.0048875481    2.4823984    5.0287451 0.0034192515 
  219400    1.6988224 -0.0092287785    2.4924587    5.0301566 0.0016291603 
  219600    1.6994416 -0.0087937431    2.4897841    5.0288455 -0.0083134081 
  219800    1.6564241 -0.0078660152    2.5538729    5.0293689 0.0075332986 
  220000    1.6813013 -0.0080692129    2.5169958    5.0295852 -0.0033502717 
  220200     1.704575 -0.010961059    2.4848612    5.0294515 0.0077984077 
  220400    1.7053989 -0.012486814    2.4851802    5.0294798 0.0090945775 
  220600    1.7632641 -0.011504618    2.3975732    5.0296083 -0.006288918 
  220800    1.7346525 -0.012284343    2.4415576    5.0299177 0.0010783457 
  221000    1.7313513 -0.0082897803    2.4419377    5.0293431 -0.0013479817 
  221200     1.727856 -0.003409285    2.4428608    5.0299064 -0.0024407503 
  221400    1.7103962 -0.0056563063    2.4711323    5.0297547 -0.003477764 
  221600    1.7086437 -0.0042103709    2.4726772    5.0301181 -0.0010001575 
  221800    1.7324508 -0.0054470527    2.4379259    5.0298224 -0.0017924991 
  222000    1.6971805 -0.0057975267    2.4915164    5.0301841 0.0042988277 
  222200    1.7226845 -0.0070404001     2.454373    5.0300342 -0.00072082143 
  222400    1.7099005 -0.003184035     2.470801    5.0311525 -0.0018756074 
  222600    1.7012436 -0.0058465442     2.486008    5.0307181 -0.0055809402 
  222800    1.7069802 -0.0059388064    2.4779511    5.0311694 0.0018194087 
  223000    1.7294508  -0.00666263    2.4845752    5.0707585 0.0036383124 
  223200    1.7051698 -0.0067381352    2.5215725    5.0712774 -0.0015502999 
  223400    1.7228567 -0.005506498    2.4936907    5.0711439 -5.4561826e-06 
  223600    1.7525623 -0.0062465143    2.4499164    5.0711652 0.0090176621 
  223800    1.7459224 -0.0070346194    2.4609953    5.0715013 -0.00096933745 
  224000    1.7466315 -0.0071620593     2.460008    5.0714496 0.0052498563 
  224200    1.7734037 -0.0078425589    2.4210167    5.0719155 -0.0047938577 
  224400    1.7336236 -0.0094066991    2.4820518    5.0717469 -0.0050064254 
  224600    1.7224498 -0.0099193122    2.4999995    5.0724299 -0.0010164638 
  224800    1.7645579 -0.0091110182    2.4365185     5.072887 -0.0015193118 
  225000    1.7682557 -0.0082295063    2.4301784    5.0729722 -0.0051194861 
  225200    1.7413028 -0.0086294719    2.4709458    5.0729312 0.0021047676 
  225400    1.7382107 -0.0094772613    2.4765915    5.0730932 0.0069204706 
  225600    1.7102635 -0.0092639687    2.5185386    5.0733543 -0.0029304296 
  225800    1.7368011 -0.007223834    2.4770116    5.0736534 0.00044701468 
  226000    1.7365403 -0.0089869326    2.4793726    5.0738603 0.0042731869 
  226200     1.753678 -0.0073044189    2.4514823     5.073346 0.00026897804 
  226400    1.7135167 -0.0055680733    2.5105943    5.0739832  0.011354883 
  226600     1.706225 -0.0058393858    2.5218386    5.0740242 0.0036811393 
  226800    1.7037629 -0.0040321942    2.5238956    5.0741972 -0.0027605563 
  227000    1.7524015 -0.0040824117    2.4509959    5.0741677  0.010673827 
  227200    1.7248088 -0.0072251623    2.4956227     5.074284 0.0010171636 
  227400     1.737505 -0.008740106    2.4779751    5.0741559 0.00098975255 
  227600    1.7108669 -0.0087223521    2.5181843    5.0744462 0.0014825345 
  227800    1.7345187 -0.0068986052    2.4807133    5.0742585 0.0034431359 
  228000     1.713446 -0.0090635709    2.5148837     5.074671 -0.0016471066 
  228200    1.7243993 -0.0055901125    2.4951117     5.074794 0.00051488098 
  228400    1.7091184 -0.0051246547    2.5178737    5.0751119 0.0030663349 
  228600     1.765944 -0.0055240198    2.4329097    5.0749433   0.00235302 
  228800    1.7348835 -0.0064582228    2.4809487    5.0754812  0.015813377 
  229000    1.7086774 -0.0035757095    2.5178818    5.0760079 0.0019837543 
  229200    1.7204185 -0.0066550964      2.50275    5.0753992 0.0004487491 
  229400    1.7176658 -0.0056301457    2.5059075    5.0754547 6.7581885e-05 
  229600    1.7188216 -0.0039844563    2.5027047    5.0756305 0.0013122159 
  229800    1.7275954 -0.0042079484    2.4898667     5.075723 0.0035308077 
  230000    1.7403974 -0.0045246742    2.4709737    5.0757063  -0.00462411 
  230200    1.7108519 -0.0041734555    2.5155004    5.0762888 -0.0012373547 
  230400    1.7317153 -0.0043021612    2.4838775    5.0758162 -0.0035856415 
  230600    1.7372983 -0.0035258602    2.4756062    5.0766913 0.0015707256 
  230800    1.7172798 -0.0025770297    2.5061235    5.0781453 0.0038779685 
  231000    1.7163417 -0.0054881326    2.5105368     5.078241 -0.0041015248 
  231200    1.7408129 -0.0055412729    2.4741713    5.0785103 -0.0019838341 
  231400    1.7306608 -0.0058032916    2.4897862    5.0786429 -0.0011732593 
  231600    1.7518121 -0.0059190442    2.4582836    5.0787352 -0.0071639063 
  231800    1.7587275 -0.0044806032    2.4467566    5.0790145 0.0029227304 
  232000    1.7482314 -0.0053177217    2.4634605     5.079145 0.00081479923 
  232200    1.7222077 -0.0040709879    2.5015897    5.0795055 -0.000538449 
  232400    1.7285566 -0.0037959895    2.4920388    5.0797481 0.0084977451 
  232600    1.6936096 -0.0054169063    2.5464834    5.0801781 0.00072860241 
  232800    1.7017333 -0.0055516302    2.5348447     5.080584 0.0015965918 
  233000    1.7207225 -0.0053817525    2.5057119    5.0800903 0.0044392617 
  233200    1.7224435 -0.0056953778    2.5038766    5.0805216 0.0076545796 
  233400    1.7707398 -0.0051979906    2.4307957    5.0803453 0.0049023218 
  233600     1.745517 -0.0051750682    2.4693528    5.0811105 0.0016032857 
  233800    1.6846239 -0.005583693    2.5616511    5.0817074 0.00066278934 
  234000    1.7193598 -0.005078086    2.5086613    5.0813003 -0.0015895222 
  234200    1.7148689 -0.0053590501     2.516214    5.0818392 0.0007039838 
  234400    1.6956583 -0.0051604762    2.5452069    5.0822294 0.00067301029 
  234600    1.7511402 -0.0027673096    2.4590894    5.0816854 0.0031010154 
  234800    1.7336458 -0.0022752274    2.4852922    5.0821521 0.0038907048 
  235000    1.7357227 -0.004490483    2.4848707    5.0826291 0.0001917561 
  235200    1.7336994 -0.0047418961    2.4881357    5.0826094 0.0039175054 
  235400    1.7084537 -0.0056247792     2.527549    5.0832906 0.0067916416 
  235600    1.7412359 -0.0040771339    2.4768415    5.0832788 0.0027215497 
  235800    1.7177045 -0.0033344688    2.5117419    5.0836429 -0.00051538272 
  236000    1.7008942 -0.0036013459     2.537189    5.0836206 -0.0058150904 
  236200    1.7368035 -0.0026282628    2.4825685    5.0838094 -0.0017732932 
  236400    1.7524862 -0.0078636862     2.463948    5.0834656 -0.0079890681 
  236600    1.7267735 -0.0043933081    2.4995855    5.0840241   -0.0025879 
  236800    1.7741454 -0.0048061226    2.4289608    5.0840081 0.0083015257 
  237000    1.7285171 -0.0041876001    2.4974155    5.0846739 -4.6699981e-05 
  237200    1.7023679 -0.0059471476    2.5383539     5.084649 -0.0040837162 
  237400    1.7310428 -0.0065097683    2.4966077    5.0853305 -0.003062271 
  237600    1.7142273 -0.0045916055    2.5202213     5.085652 -0.0034880158 
  237800    1.7623362 -0.002549198    2.4461481    5.0857476  0.011915251 
  238000    1.6752388 -0.0038965801    2.5784288    5.0861018 -0.0023537048 
  238200    1.7194409 -0.0038008607     2.511987    5.0860249 0.0037051655 
  238400    1.7331196 -0.0054732349    2.4932253    5.0860983  0.003597248 
  238600    1.7099669 -0.0084889285    2.5313589     5.086505 0.00057938274 
  238800     1.709281 -0.0083143621    2.5322277    5.0865199 0.00023801957 
  239000    1.7039086 -0.0073545875    2.5392702    5.0864679 0.0026209848 
  239200    1.7155723 -0.0082347811    2.5227321    5.0865362 0.0028190109 
  239400     1.737228 -0.0062268653    2.4883074    5.0865862  0.001155519 
  239600    1.7246341 -0.0062594658    2.5077383    5.0871034 -0.0096264211 
  239800    1.7262542   -0.0064709    2.5058187    5.0874012 -0.0063550936 
  240000    1.7340686 -0.0066255606    2.4944036    5.0875471 -0.0032924985 
  240200    1.7173206 -0.0089485921    2.5221832    5.0878946 0.0055922543 
  240400    1.7188328 -0.0075291243    2.5189165    5.0883143 0.0013171008 
  240600    1.7638685 -0.0068449897    2.4505515    5.0881525 0.0004242301 
  240800    1.7512283 -0.0081880613    2.4711711    5.0884784 -0.00072466049 
  241000    1.7136822 -0.0059831653    2.5254545    5.0886765 0.0013454111 
  241200    1.7141072 -0.0059541252    2.5249636    5.0888517 -0.005904352 
  241400    1.7336621 -0.0056267648     2.495205    5.0887377 -0.0084392645 
  241600    1.7498086 -0.0052493197    2.4707619    5.0888794 0.0031236665 
  241800    1.7217082 -0.011227546    2.5192615    5.0892718 0.0023283829 
  242000     1.704276 -0.0097190256    2.5437015    5.0890855 -0.0058600198 
  242200    1.7474574 -0.0094899383    2.4785737    5.0889256  0.008819347 
  242400    1.6812155 -0.0072854709    2.5759803    5.0892248 -0.0058104993 
  242600     1.725395 -0.008619682    2.5117991    5.0899447 -0.00064065859 
  242800    1.7662874 -0.0059791586    2.4474703    5.0895635 0.0043671547 
  243000    1.7174568 -0.0090646734    2.5239023    5.0897018 -0.0011988806 
  243200     1.736958 -0.0067047477    2.4923662    5.0897623 0.0031207299 
  243400    1.7278374 -0.0069268241    2.5060668    5.0895669 0.0054311341 
  243600    1.7201965 -0.0063704497    2.5174526    5.0900537 0.0026519142 
  243800    1.6836822 -0.0049583774     2.571287    5.0905569 0.0012638114 
  244000    1.7021576 -0.0048107592    2.5437304    5.0908467 -0.0050311335 
  244200    1.7268531 -0.0065780111    2.5084065    5.0907798 -0.003843291 
  244400    1.7378212 -0.0080607964    2.4931742    5.0905084 -0.0013764143 
  244600    1.7604972 -0.0060674519    2.4575752    5.0908993 -0.001250665 
  244800    1.7220923 -0.0048698804    2.5142013    5.0911451 -0.0038981718 
  245000    1.7220657 -0.0044816079    2.5143177      5.09161 -0.00033506054 
  245200    1.7451685 -0.0028980114    2.4782989    5.0918111 0.0037368699 
  245400    1.6897265 -0.0042712322    2.5628228    5.0918415  0.001179876 
  245600    1.7431936 -0.0058565404    2.4842053    5.0917982 0.0011560384 
  245800    1.7319417 -0.0056371211    2.5010227    5.0919658 -0.00024790458 
  246000    1.7217449 -0.0061700371    2.5169022    5.0920252 -0.0055099914 
  246200    1.7412925 -0.0050027084    2.4866035    5.0922001 -0.00085333022 
  246400    1.7148927 -0.0084964285    2.5298436     5.092367 -0.0049838198 
  246600    1.7328314 -0.0071497246    2.5016172    5.0923817 -0.00070478564 
  246800    1.7234061 -0.0092505854    2.5186141     5.093147 -0.0045280947 
  247000    1.7668422 -0.0078188157    2.4522411    5.0933265 0.0045784171 
  247200     1.672732 -0.0061132389    2.5921996    5.0938976 3.8387126e-05 
  247400      1.72603 -0.0059032696      2.51202    5.0938341 -0.00080918283 
  247600    1.7183125 -0.0039501313    2.5215259    5.0937227 0.00094563574 
  247800    1.7509816 -0.0040249261    2.4723316    5.0934322 0.0035987385 
  248000    1.7070213 -0.0048876468    2.5397326    5.0940638 0.0018974377 
  248200    1.7290682 -0.0063664882    2.5083815    5.0942874 -0.0052507916 
  248400    1.7104231 -0.0049266172    2.5358599    5.0952523 -0.0026765166 
  248600     1.712568 -0.0063718332    2.5340164    5.0951791 0.0058410809 
  248800    1.6981383 -0.0074256335    2.5566731    5.0951486 -0.010327105 
  249000    1.7119574 -0.0064788414    2.5357511    5.0958914 0.0031064134 
  249200    1.7508136 -0.0078099711     2.478459    5.0955226 -0.00014477835 
  249400    1.7500812 -0.009199314    2.4808902    5.0954665 0.0013619888 
  249600    1.7042089 -0.0076400135     2.548549    5.0959114 0.0031712945 
  249800    1.7436539 -0.0072817241    2.4891048    5.0959627 0.0049339549 
  250000    1.7396941 -0.0054715406    2.4930621    5.0957935 -0.0030743566 
  250200    1.7486623 -0.0055661404    2.4798132    5.0958954 0.0018531911 
  250400    1.7318291 -0.0046741491    2.5043643    5.0961016 0.0032741611 
  250600    1.6981686 -0.0056313584    2.5563036    5.0966188 -0.0027736151 
  250800    1.7522949 -0.0051290044    2.4742942    5.0962597 -0.0040281299 
  251000    1.7456295 -0.0054796099    2.5404903    5.1521122 -0.0088409078 
  251200    1.7624723 -0.0050183259    2.5145037    5.1518381 -0.005260171 
  251400    1.7313826 -0.0034638139    2.5602989    5.1525771 0.0065916791 
  251600    1.7338405 -0.0039190344    2.5571814    5.1526894     0.010926 
  251800    1.7106493 -0.0034146611    2.5915698    5.1528133 -0.0013711688 
  252000    1.7576316 -0.0034103937    2.5207534    5.1524384 0.0034609021 
  252200    1.7089197 -0.0033889259     2.594197     5.152873 0.0052291948 
  252400    1.7612375 -0.0046338709    2.5170247    5.1528923  0.015257573 
  252600    1.7364069 -0.0035009595    2.5532549    5.1530286 0.0037050538 
  252800    1.7505712 -0.003194334    2.5314467    5.1527625 -0.0015811801 
  253000    1.7528309 -0.0043693117    2.5297953     5.153324 0.0017727082 
  253200    1.7713208 -0.0025847617    2.5003468    5.1533808 0.0020406157 
  253400    1.7519864 -0.0016626689    2.5323198     5.157289 0.0036001517 
  253600    1.7528527 -0.0029509941    2.5332006    5.1581803 0.0074195066 
  253800    1.7038766 -0.0042686043    2.6097615    5.1599972 0.0018809799 
  254000    1.7825847 -0.0053963105    2.4925258    5.1596353 0.0012381141 
  254200    1.7447703 -0.0048123164    2.5492521    5.1602531 0.0020117931 
  254400    1.7393689 -0.0038453046    2.5566842    5.1605543 0.00076000962 
  254600    1.7527623 -0.0044144305    2.5374699    5.1608507  -0.00253397 
  254800     1.747662 -0.0056135003     2.546357    5.1608922 0.0021269414 
  255000    1.7505682 -0.0060265656    2.5424997    5.1609788 0.0001206526 
  255200    1.7416698 -0.0053200099    2.5551712    5.1610161 -0.0014798641 
  255400    1.7494946 -0.0032482498    2.5417829    5.1614307 -0.0042174183 
  255600    1.7960907 -0.0047878132    2.4731202    5.1610868 -0.0045696579 
  255800    1.7812877 -0.0054167866    2.4958561    5.1610007 -0.0075422908 
  256000    1.7684935 -0.0026195237     2.512528    5.1612884 0.0076519929 
  256200    1.7661817 -0.004015492    2.5175041    5.1614025   0.00321378 
  256400    1.7503934 -0.0036531801    2.5412046     5.161795 -0.0021601448 
  256600    1.7480168 -0.0029824135     2.544238    5.1619361 -0.0055334206 
  256800    1.7499444 -0.0027512376    2.5414324    5.1622516 0.0016007284 
  257000    1.7499187 -0.0033607961    2.5419225    5.1620936 -0.0048490427 
  257200    1.8048562 -0.0035812261    2.4598478    5.1621626  0.010053246 
  257400    1.7036289 -0.0045865281    2.6133358    5.1628822 -0.0033448588 
  257600    1.7463466 -0.0046631267    2.5486412    5.1621546 -0.00068906773 
  257800    1.7497436 -0.0034914157    2.5428407    5.1626188 -0.0041182855 
  258000    1.7756591 -0.0031239124    2.5039963    5.1629953  0.007279976 
  258200    1.7861037 -0.0039210493    2.4894514    5.1633121 0.00077947778 
  258400    1.7895515 -0.0044203609    2.4846564    5.1631867 0.0059224722 
  258600    1.7978882 -0.0051082816    2.4732741    5.1636152 -0.0015385516 
  258800    1.7946851 -0.0030492057    2.4758782    5.1634761 0.00052666273 
  259000    1.7700618 -0.0039099339    2.5141671    5.1639883 -0.0039368513 
  259200    1.7968518 -0.0033359855    2.4733796    5.1639392  0.010629121 
  259400    1.7854542 -0.0058079882    2.5110425    5.1820424 -0.0053732359 
  259600    1.7675265  -0.00542634    2.5380175    5.1825212 0.0034673935 
  259800    1.7186137 -0.0035449892    2.6100378    5.1830913 -0.0058411667 
  260000    1.7844995 -0.0068071106    2.5140197    5.1825892 -0.0018916518 
  260200    1.7956086 -0.006892987    2.4975232     5.182662 0.0005231159 
  260400    1.7759596 -0.0035985679    2.5242414    5.1832161 0.0092515787 
  260600    1.7288788 -0.0062970643    2.5979586    5.1836499 -0.0060824249 
  260800    1.7573175 -0.0027403903    2.5519872    5.1838713 -0.0014648374 
  261000     1.777063 -0.0036007152    2.5234267    5.1840536 0.0040187588 
  261200    1.7888591 -0.0047071708    2.5066943    5.1838997 -0.0035249345 
  261400    1.7659737 -0.0045100714    2.5536692    5.1967612 -0.0040691638 
  261600    1.7772998 -0.0049985327    2.5375856    5.1971697  0.002692065 
  261800    1.7514236 -0.0051639754    2.5770391    5.1976633 0.00065346763 
  262000    1.7623526 -0.0020499786    2.5577305    5.1978537 0.0060816695 
  262200    1.7352927 -0.0042523624    2.6003772    5.1977291  0.001753165 
  262400     1.812728 -0.0033717186    2.4834015    5.1977273 0.0037719951 
  262600    1.7375353 -0.004933705    2.5999705    5.2000033 0.0033096101 
  262800    1.7525411 -0.0045399056    2.5767517    5.1996754 0.0028695688 
  263000    1.7637444 -0.0032327724     2.559346    5.2003731 0.0022892047 
  263200    1.7533947 -0.0048840014    2.5766441    5.2005034 -0.00052970238 
  263400    1.7728924 -0.0058990796    2.5484745    5.2005502 -0.0031711087 
  263600    1.7777779 -0.0058220041    2.5408552    5.2003324  0.007847088 
  263800    1.7672827  -0.00321963    2.5542655    5.2006105 0.0083200854 
  264000    1.7642152 -0.0046316152     2.560103     5.200437 -0.004647595 
  264200    1.8367615 -0.0027143386    2.4496938    5.2007088 0.0098298283 
  264400    1.7738266 -0.0035518697    2.5450818    5.2009054 0.0029843614 
  264600    1.7624009 -0.004295724    2.5633524    5.2013024 -0.0026971659 
  264800     1.775823 -0.0055960647    2.5448704    5.2016428 0.0012415037 
  265000    1.7717514 -0.0052561435    2.5505698    5.2015779 -0.0027071792 
  265200    1.7882333 -0.0064277065    2.5271894    5.2017361 0.0058974839 
  265400    1.7508533 -0.0049642541    2.5823661     5.202335  0.004811553 
  265600    1.8016891 -0.0036621739    2.5045388    5.2020243  0.002555882 
  265800    1.7579193 -0.004023055    2.5709657    5.2024693 0.00014297775 
  266000    1.7744187 -0.005076909    2.5479741    5.2031603 -0.0042998414 
  266200     1.742308 -0.0056673483    2.5964139    5.2028682 -0.0048347515 
  266400    1.7865477 -0.0065014064    2.5311869    5.2031328 0.0021390162 
  266600    1.7674836 -0.0053076923    2.5585247    5.2030829 0.0007721308 
  266800     1.758732 -0.0053862058    2.5722782    5.2036371 0.00081396864 
  267000    1.7670112 -0.0047408375     2.559221    5.2036378 6.1062078e-05 
  267200    1.8079912 -0.0060534694    2.4983474    5.2028899 -0.0034603428 
  267400     1.707311 -0.0055435136    2.6448276    5.1989373 -0.0036123895 
  267600     1.781972 -0.0048320612    2.5318783    5.1986336 0.0066108925 
  267800    1.7488036 -0.0064165334    2.5833973     5.198841 0.0050697346 
  268000    1.7520961 -0.0043437635    2.5767603    5.1992129 -0.0098848531 
  268200    1.7661655 -0.0027573669    2.5542973    5.1994295 0.0073126316 
  268400    1.7883697 -0.0034185929    2.5231889    5.2009493 0.00044135775 
  268600     1.824284 -0.0053372525    2.4715083    5.2011937 0.0065094568 
  268800    1.7620951 -0.0049452468    2.5651434    5.2019853 -0.00021123362 
  269000    1.7644678 -0.0050046517    2.5613522     5.201692 0.0020843655 
  269200    1.7447574 -0.005429457    2.5919079    5.2022725 -2.6652492e-05 
  269400    1.8010138 -0.0053082402    2.5071379    5.2019649 0.0070083708 
  269600    1.7829749 -0.0053153337    2.5342418    5.2020173 -0.003449173 
  269800    1.7161659 -0.0068391166    2.6364103    5.2024999 -0.0037084533 
  270000    1.7343403 -0.0069846066    2.6092945    5.2024863 0.0055247551 
  270200     1.713492 -0.0059641277    2.6401452     5.203101 0.0023508823 
  270400    1.7748351 -0.0072989631    2.5494166     5.203005 0.0005205344 
  270600    1.7394432 -0.0097924529    2.6056392    5.2036735 -0.0092838973 
  270800    1.7537223 -0.0080307999    2.5924592    5.2136628 0.0016258996 
  271000    1.7588571 -0.0059648351     2.582827    5.2137949 -0.0013145715 
  271200    1.8049461 -0.0080048875    2.5155722     5.213598 0.0010977827 
  271400    1.7925619 -0.0067239637    2.5331744    5.2139144 0.0052520996 
  271600    1.7579872 -0.0057402832     2.584674    5.2145623 0.00030888263 
  271800    1.7512403 -0.0064522487    2.5954177    5.2144788  -0.00361995 
  272000    1.8062524 -0.0057547985    2.5123648    5.2145992 -0.0061016241 
  272200    1.7375971 -0.0072083313    2.6168818    5.2147326 0.0094951206 
  272400    1.7874619 -0.0051590564     2.539795    5.2144539 0.0093911325 
  272600    1.7530853 -0.0067201847    2.6030424    5.2246016 0.0074761997 
  272800    1.7315462 -0.0067733356    2.6357118    5.2249258 0.0059775775 
  273000    1.8140746 -0.0069350842    2.5120468    5.2248282 0.0078485005 
  273200    1.7856774 -0.0073493999    2.5551357    5.2249288 0.0019019001 
  273400    1.7574353 -0.0065532993    2.5969411    5.2251889 -0.010843676 
  273600    1.7589373 -0.0067797773    2.5951457    5.2254188 0.0049250837 
  273800    1.7769465 -0.010610914    2.5728986    5.2263405 0.0076558417 
  274000    1.7991867 -0.0095174203    2.5381037    5.2259824 0.0043374764 
  274200     1.798654 -0.0087782007    2.5384393    5.2262584 0.00020604387 
  274400    1.8204771 -0.0086727293    2.5051554    5.2257979 0.0046039305 
  274600     1.757739 -0.0094046747    2.6005209    5.2263726 -0.0029459019 
  274800    1.7542244 -0.010917437     2.607352    5.2264218 -0.0026956253 
  275000    1.8286879 -0.0098178657    2.4946929    5.2265002 0.0059058466 
  275200     1.754864 -0.0089803052    2.6051222     5.227088 0.0016234043 
  275400     1.750275 -0.0098783517    2.6131206    5.2273084 0.0046076686 
  275600     1.780535 -0.0092840624    2.5670825    5.2272312 -0.0095024809 
  275800    1.7691781  -0.01152269    2.5869155     5.227799 -0.0066469193 
  276000     1.815225 -0.0059933976    2.5117019    5.2271497  0.010026746 
  276200    1.7406994 -0.0077616479    2.6258461    5.2277946 0.0025548585 
  276400     1.760668 -0.0085975723    2.5969311    5.2279812 -0.0020332343 
  276600    1.8042212 -0.009988959    2.5328809    5.2278359 0.0057847757 
  276800    1.8129186 -0.0099464843    2.5203935    5.2284303 0.0020275066 
  277000    1.7686026 -0.0080877132    2.5850804    5.2285362 -0.0066393177 
  277200    1.7892438 -0.005479849    2.5506557    5.2276653 -0.0034170748 
  277400    1.7787061 -0.0068599465    2.5683793    5.2282103 -0.00088604184 
  277600    1.7965847 -0.0081545562    2.5429739    5.2283144 -0.0074379503 
  277800    1.7759525 -0.0086499636    2.5747764    5.2286891 -0.000850154 
  278000     1.782933 -0.0058716286    2.5623206    5.2294769 0.0011350197 
  278200    1.7954979 -0.005414849     2.543227    5.2296778 0.0046453995 
  278400     1.768853 -0.0076947378    2.5853943    5.2296185 0.0025874214 
  278600    1.8128951 -0.009295572    2.5205361    5.2291886 0.0076706155 
  278800    1.7825498 -0.0085629551    2.5662305     5.230121 0.0064052829 
  279000    1.7636651 -0.0082495923    2.5946766     5.230568 -0.00051623284 
  279200    1.7629367 -0.0093365918    2.5971328    5.2308452 -0.0023349777 
  279400    1.7676857 -0.0087414978    2.5894337     5.230861 -0.0068602357 
  279600    1.8262571 -0.0081992308    2.5008638    5.2306454 0.0010563571 
  279800    1.7940381 -0.009226465    2.5505716    5.2310222 -0.0086837085 
  280000    1.8038786 -0.0041346073    2.5308254    5.2311212 -0.0036992894 
  280200    1.7779242 -0.0060407353     2.571691     5.231169 -0.0047880454 
  280400    1.8103869 -0.0076399767    2.5251304    5.2316781 0.0046548615 
  280600    1.7990629 -0.0071322945    2.5415883    5.2316665 -0.0019693661 
  280800    1.7869412 -0.0091585115    2.5618311    5.2317099 -0.00011055076 
  281000    1.7815983 -0.0086154155     2.570174    5.2325856 0.0009178347 
  281200    1.7739069 -0.0078307308    2.5810273    5.2326924 -0.002087823 
  281400    1.7193594 -0.0096879308    2.6629985     5.231027 0.0069507882 
  281600    1.7890799 -0.011678324     2.560198    5.2307634 0.0043825228 
  281800    1.7964872 -0.010843608    2.5484864    5.2309917 -0.0024117401 
  282000    1.8149084 -0.0065438215    2.5166018    5.2310245 -0.0018571746 
  282200    1.8019234 -0.0088152134    2.5386791     5.231363 -0.0022704387 
  282400    1.7873759 -0.0084147226    2.5603332    5.2316074 0.0007428791 
  282600    1.7783753 -0.0087343036     2.574464    5.2319247 0.0010280832 
  282800    1.7743853 -0.006266892    2.5820054    5.2359516   0.00745131 
  283000    1.7958168  -0.00737196    2.5510497    5.2360215 0.0042169755 
  283200    1.7616242 -0.0055853389    2.6010503    5.2365461 0.0068222215 
  283400    1.8003506 -0.0058273143    2.5434775    5.2367912 0.0014383532 
  283600    1.8215671 -0.0071725725    2.5127672    5.2365441 0.0012062491 
  283800    1.8614518 -0.0089665916    2.5497176    5.3314968 -0.001496132 
  284000    1.7938588 -0.0093349569    2.6519713    5.3320446 9.8378134e-05 
  284200    1.8040501 -0.009652629    2.6368681    5.3319029 0.0059653513 
  284400    1.8163769 -0.0089169522    2.6179361    5.3321873  0.004640489 
  284600    1.8066198 -0.0092081597    2.6326324    5.3319643 -0.0048800598 
  284800    1.8015919 -0.0078472346    2.6390731    5.3322279 -0.0049006827 
  285000    1.8189929 -0.0069190528    2.6123106    5.3324817  0.001243578 
  285200    1.7785304 -0.0065897193    2.6728898    5.3327276 -0.0057570726 
  285400    1.8048451 -0.0083360027    2.6353066    5.3328498 -0.006456459 
  285600    1.7808054  -0.01040285    2.6738228    5.3332581 0.0038909084 
  285800    1.7907723 -0.010426655    2.6586578    5.3330121 -0.0035523693 
  286000    1.8391746 -0.0098726021    2.5856836    5.3331581 0.0030081392 
  286200    1.8169161 -0.0069952924    2.6163945    5.3333757 0.0031105995 
  286400    1.8310188 -0.0074553599    2.5958558    5.3335203 -0.0014274988 
  286600    1.8056435 -0.0096481706    2.6362385    5.3336666 -0.0070479228 
  286800    1.7809994 -0.010146762    2.6740733    5.3340556 -0.0059582159 
  287000    1.8035322 -0.010114585     2.640363    5.3341594 0.0071725442 
  287200    1.8281913 -0.010160523    2.6034032    5.3341233  0.011241689 
  287400    1.8083771 -0.0087285132     2.631687     5.334133 -0.0013795747 
  287600    1.8562009 -0.0078061083    2.5595374    5.3346049 -7.4952625e-05 
  287800    1.7704229 -0.0088478944    2.6897688    5.3351933 -0.00068256591 
  288000    1.8196764 -0.0086824093    2.6154637    5.3348962 -0.00090888078 
  288200    1.8353187 -0.010335784    2.5935964    5.3348269 -0.002628363 
  288400    1.8180555 -0.012858192    2.6221258    5.3349523 0.0035982955 
  288600    1.8398084 -0.014330598    2.6089408    5.3529076 0.0019738632 
  288800    1.7795116 -0.015027067    2.7070056    5.3598771 -0.0082098955 
  289000    1.8293941 -0.016135273    2.6332923     5.359841 0.0016799434 
  289200    1.7915606 -0.011039128    2.6852789    5.3602025 0.0088302717 
  289400    1.7928208 -0.011701323    2.6839222     5.360073 -0.0054186906 
  289600    1.8196698 -0.011787113    2.6438007    5.3601186 -1.1561077e-05 
  289800    1.7866062 -0.010485618    2.6962084    5.3642577 -0.0017651074 
  290000     1.803819 -0.011737055    2.6717759    5.3643799 -0.0070293497 
  290200    1.7748562 -0.0095939598    2.7133018    5.3646269 -0.0059811924 
  290400    1.8684511 -0.010242148    2.5732824    5.3642797 0.0036998784 
  290600    1.8148098 -0.0093458197    2.6535355    5.3650084 -0.00013955684 
  290800    1.8532933 -0.0067479971    2.5931056    5.3648719 0.00049048947 
  291000    1.7923087 -0.0098754399     2.687608    5.3648169 0.0042329882 
  291200    1.8145089 -0.0052762598    2.6499759    5.3650672 -0.0029262122 
  291400     1.769083 -0.0087555631    2.7214222    5.3649303 -0.0015587528 
  291600    1.8030315 -0.0087762513    2.6716062    5.3659903 0.0032740453 
  291800    1.8416955 -0.0085157984    2.6127921    5.3654028 0.0038928491 
  292000    1.7727552 -0.0082683291    2.7160619    5.3655626 0.0010412432 
  292200     1.785926 -0.0076760075     2.695504    5.3653432 -0.0045616345 
  292400    1.8551118 -0.0086442921    2.5927182    5.3653146 -0.0011632133 
  292600    1.7988964 -0.011128999    2.6790905    5.3649223 -0.0070566415 
  292800    1.8193891 -0.010524937    2.6483429     5.365502 0.0094415929 
  293000    1.8341709 -0.008660666     2.624145    5.3653297  0.003889134 
  293200    1.8580099 -0.0085162777    2.5884877     5.365557  0.003178301 
  293400    1.8001432 -0.0065029909    2.6738439    5.3661709 -0.0059633741 
  293600    1.8014091 -0.011419017    2.6767995    5.3661084 -0.0024982581 
  293800     1.776114 -0.012254898    2.7157875    5.3663374 -0.006922327 
  294000    1.8107663 -0.006646811     2.658369    5.3664787 0.0010141847 
  294200    1.7752034 -0.010885331    2.7141052    5.3646594 -0.0098538951 
  294400    1.8645254 -0.010508582    2.5793884    5.3642336 0.0069112667 
  294600    1.8170661 -0.010481217    2.6510748     5.364795 -0.0057018302 
  294800    1.8606758 -0.0089348108    2.5839335    5.3645811 -0.0032300382 
  295000    1.7806999 -0.0096034803    2.7053944     5.365471 -0.0015985959 
  295200    1.8645762 -0.0083916735     2.578093    5.3651314 0.0092404107 
  295400    1.8251055 -0.0089301094    2.6375361    5.3648603 -0.0027531233 
  295600    1.7891395 -0.0081654688    2.6987778    5.3729453 0.00092989915 
  295800    1.8528658 -0.0088409076    2.6038832    5.3729157 0.0013282662 
  296000     1.831181 -0.011259395    2.6393272    5.3734307 -0.0060442473 
  296200    1.8124193   -0.0103206    2.6664508    5.3733651 0.00043911558 
  296400    1.8563945 -0.0080300222    2.5977083    5.3728419 0.0033473725 
  296600    1.8541802 -0.0080804483    2.6012992    5.3730627 0.0069953248 
  296800    1.8032845 -0.0054211328    2.6751729    5.3732914 -0.0033351889 
  297000    1.8662653 -0.0056105827    2.5812633    5.3736151 0.00021905516 
  297200    1.8623163 -0.0059180064    2.5819354    5.3680593 -0.00088230323 
  297400    1.8103032 -0.0084960597    2.6629519     5.368518 0.0023742894 
  297600    1.8324925 -0.0078406837    2.6287494    5.3682379 0.0093906619 
  297800    1.8165139 -0.0070087672    2.6519383     5.368303 -0.00063560094 
  298000    1.8708371 -0.0060377923    2.5697459    5.3685246 0.0086973838 
  298200    1.8050254 -0.006646196    2.6687493    5.3682528 -0.0027268838 
  298400    1.8025094 -0.0090237411     2.675216    5.3685699 0.0050911054 
  298600    1.8370699 -0.0087502634    2.6232709    5.3687123 -0.0074561741 
  298800    1.8298466 -0.0085847097    2.6340305    5.3688081 -0.0072249085 
  299000    1.8008899 -0.0077850731    2.6769869    5.3691514 -0.0085054416 
  299200    1.8311388 -0.0087432546    2.6322967    5.3688531 0.0051002042 
  299400     1.790658 -0.0089912088    2.6938735    5.3694918 -0.0056177786 
  299600    1.8172162 -0.0070961311    2.6523649    5.3696952 -0.0015168536 
  299800    1.8481241 -0.0079810352    2.6071847    5.3699682 -0.0036812534 
  300000    1.7973011 -0.0084233853    2.6838927    5.3700384 -0.010057011 
  300200    1.8010366 -0.0070245515    2.6770952    5.3702401 -0.0025516314 
  300400    1.8675865 -0.0076718617    2.5780338    5.3703052 0.0061121939 
  300600    1.8270016 -0.0076855971    2.6392698    5.3706812 -0.00054458318 
  300800    1.8208557 -0.0075592473    2.6487973    5.3711208  0.011621303 
  301000    1.8161394 -0.007427594    2.6561492    5.3715336 -0.0027782246 
  301200    1.8206808 -0.0032622386    2.6451142    5.3714727 -0.0013157124 
  301400    1.8413761 -0.0071090625     2.618028    5.3715667 -0.0020101767 
  301600     1.843217 -0.0055886535    2.6140329    5.3718518 0.0024573059 
  301800    1.7579944 -0.006753724    2.7522867    5.3811724 0.0005321736 
  302000      1.82906 -0.0079116357    2.6464499    5.3807213 -0.00080650418 
  302200    1.7835067 -0.0080215359    2.7153794     5.381246 0.0070076657 
  302400    1.8302376 -0.0067224467    2.6438467    5.3810727 0.0086408721 
  302600    1.8025398 -0.0055755354    2.6843353    5.3811829 -0.00054094858 
  302800    1.8067651 -0.0033538612    2.6765572    5.3819612 -0.0022415914 
  303000    1.8378033 -0.0032093187    2.6297156    5.3817976 0.0015922315 
  303200    1.8550258 -0.0047461729    2.6054823    5.3818478 0.0015473992 
  303400    1.8064763 -0.006875149    2.6808027    5.3822524 0.0029028142 
  303600    1.8430992 -0.005635737    2.6249639    5.3825593   0.00540172 
  303800    1.7893917 -0.0042025744    2.7043527    5.3828612 -0.0029316518 
  304000    1.8187393 -0.0044812241    2.6607241    5.3829528 2.1204692e-05 
  304200    1.7994548  -0.00433137    2.6897925    5.3832592 0.00050414183 
  304400    1.8227525 -0.0043844775    2.6548294    5.3831716 0.00066410673 
  304600    1.8808169 -0.0042341529    2.5675566     5.383101 0.0019755184 
  304800    1.8582659 -0.0056622999    2.6038877    5.3841947 0.0020334858 
  305000    1.8209452 -0.0068310341    2.6608963    5.3840823 0.0014264793 
  305200    1.8511436 -0.0067739812    2.6153895    5.3839069 0.0020744389 
  305400    1.8720378 -0.0048927994    2.5823363    5.3840602 -0.001403563 
  305600    1.8329632 -0.0052866074    2.6415688     5.384317 -0.0052485383 
  305800    1.8426731 -0.0054579014    2.6276231    5.3847573 0.0024957662 
  306000    1.8552304 -0.0059501163    2.6094545    5.3849229 -0.002745071 
  306200    1.7874653 -0.006962261     2.712348    5.3852086 -0.0014296783 
  306400    1.8666616 -0.0065060996     2.592844    5.3848945 0.0080957112 
  306600    1.8331256 -0.0061600785    2.6432286    5.3853468  0.002356592 
  306800     1.810266 -0.0084554737    2.6802755    5.3858264 0.0018203531 
  307000    1.7792154 -0.0060720279    2.7244688    5.3858512 -0.0031843121 
  307200    1.8409347 -0.0071150956    2.6330241    5.3858949 0.0026187496 
  307400    1.8238119 -0.0067498165    2.6580573    5.3856224  0.016508772 
  307600    1.8406497 -0.0067485334    2.6453885    5.3981987 0.00054798364 
  307800    1.8118745 -0.0079201641     2.689897    5.3983947 -0.0021800554 
  308000    1.8249865 -0.010659631    2.6736636    5.3990798 -0.0071549177 
  308200    1.8838667 -0.0099270645    2.5837089    5.3981327   0.01054314 
  308400    1.8192218 -0.0057689859    2.6771148    5.3987791 -0.0058535674 
  308600    1.8646115 -0.0083001817    2.6114847    5.3986674 -4.469068e-05 
  308800     1.852788 -0.005985519    2.6273565    5.3991278 -0.0042633934 
  309000    1.8446968 -0.0074813404    2.6408152    5.3989601  0.001238914 
  309200    1.8077768 -0.0050647501    2.6937277    5.3989375 0.0085161445 
  309400    1.8258052 -0.0052569389     2.667164    5.3992103 0.00023057127 
  309600    1.8666875 -0.0070521179    2.6078302    5.3993734 -0.00023049772 
  309800    1.8189246 -0.0049714952    2.6782655    5.4002818 0.0081937699 
  310000    1.7928794 -0.0060082035    2.7182815    5.4002132 0.0040489933 
  310200    1.8252222 -0.0025383967    2.6662366    5.4001274 0.0010328963 
  310400    1.8288557 -0.0069057208    2.6651836    5.4001545 5.2942338e-06 
  310600    1.8444701 -0.0067845295    2.6417116    5.4002135 -0.0021695402 
  310800    1.8416121 -0.0052739538    2.6452564     5.400984 0.0026656879 
  311000    1.8741522 -0.0054020303    2.5963309    5.4007154  0.001141432 
  311200    1.8337114 -0.0038699119    2.6561384     5.401425 0.0027370923 
  311400    1.8117931 -0.0052982332    2.6900534    5.4010512 -0.0048138915 
  311600    1.7908821 -0.0045605621    2.7205067    5.4008916 -0.0098554177 
  311800    1.8328576 -0.0067765639    2.6596947    5.4007946 2.0742114e-05 
  312000    1.8455806 -0.0031739849    2.6372858     5.401063 0.00010770482 
  312200    1.8628063 -0.0058452657    2.6143721    5.4013033 0.0016538582 
  312400    1.8087204 -0.0061724325    2.6950187    5.4005356 0.0018105177 
  312600    1.8065178 -0.0046251161    2.6971454    5.4009073 -0.0064661529 
  312800    1.8110458 -0.0057649342    2.6908252    5.4002359 0.0025518727 
  313000    1.7981591 -0.0066687188    2.7115032    5.4006899 -0.0035830322 
  313200    1.8378984 -0.006664828    2.6524789    5.4012479 -0.0027199678 
  313400    1.8213064 -0.0076488507    2.6781175    5.4010272 -0.0052707642 
  313600    1.8896144 -0.0034806092    2.5719747    5.4014621 0.0035824567 
  313800    1.8341939 -0.0040871077    2.6562182     5.402011  0.004516581 
  314000    1.8107487 -0.0053498153    2.6927815    5.4021619 0.0004955437 
  314200    1.8635511 -0.0042491091    2.6126628    5.4023069  0.002392847 
  314400    1.8506803 -0.0043250709    2.6323434    5.4026152 0.0053418988 
  314600    1.8204828 -0.003658855    2.6776154    5.4032804 -0.0072769237 
  314800    1.8102853 -0.0045245707    2.6940815    5.4035925 -0.0028459278 
  315000    1.8406919 -0.004092881    2.6481955    5.4037246 -0.0061191947 
  315200    1.8684906 -0.0038898379    2.6066406    5.4040494 -0.00071363724 
  315400    1.8472161 -0.0030427935    2.6381035    5.4044639 0.0015813942 
  315600    1.8158652 -0.0034663445    2.6858808    5.4048155 -0.00067300869 
  315800    1.8509452 -0.0035126576    2.6328338    5.4043151 0.00021176879 
  316000    1.8487932 -0.0028565009    2.6358145    5.4047257 0.0049253832 
  316200    1.8721535 -0.0028198394    2.6007654    5.4047356 -0.0030222146 
  316400    1.8465661 -0.0045987316    2.6412583    5.4050883  0.010272045 
  316600     1.822125 -0.0052285537    2.6785468    5.4051041 0.0026151795 
  316800    1.8491588 -0.0034969134    2.6368986    5.4057175 0.0018566873 
  317000    1.8573394 -0.0045163426    2.6255544    5.4056184 -0.0038278157 
  317200    1.8436616 -0.0036176045     2.645458    5.4059146 0.00055242153 
  317400    1.8305486 -0.0028138272    2.6649456    5.4065465 -0.0040947806 
  317600    1.8231384 -0.003187648    2.6829272    5.4130448 0.0076154831 
  317800    1.8119775 -0.0038800432    2.7005293    5.4132216 -0.0041265889 
  318000     1.881126 -0.0047685643    2.5980067      5.41348 0.0021106455 
  318200    1.8274467 -0.004965898    2.6788763    5.4136747 -0.011767796 
  318400    1.8328995 -0.0056483718    2.6715842    5.4138752 -0.0011805343 
  318600    1.8256625 -0.0050938334    2.6816233    5.4136188 0.0038346103 
  318800     1.848964 -0.0050068558    2.6472959    5.4143128  0.003152198 
  319000     1.866555 -0.0068568962    2.6226119    5.4141517 -0.0040336062 
  319200    1.8586774 -0.003963994    2.6315993    5.4142217 0.0072308175 
  319400    1.8243522 -0.0081261147    2.6877061    5.4147049   0.00538197 
  319600    1.8275867 -0.0056143667    2.6812228    5.4155826 0.0025561337 
  319800    1.8220863 -0.0059756385    2.6901834    5.4159356 0.00076736462 
  320000    1.8419411 -0.0051267744    2.6593537    5.4157218 -0.0071968641 
  320200    1.8321786 -0.0043722923    2.6736635    5.4161497 -0.0041544511 
  320400    2.0198551 -0.0040208358    3.8975545    6.9217626 -0.010648556 
  320600    2.5722035 -0.0044787174    3.0436568    6.8955047  0.013071794 
  320800    2.4322042 -0.0046878503     3.271157    6.9129046  -0.00965242 
  321000    2.4272438 -0.0050250287    3.2695581    6.9035316  0.009026545 
  321200    2.3154227 -0.0064966241    3.4397012    6.9045576 0.0062327323 
  321400    2.3698934 -0.0067350522    3.3581319    6.9044139 0.0078619108 
  321600    2.2420065 -0.0080222591    3.6369986    6.9902615 -0.0039485507 
  321800    2.3091062 -0.008702008    3.5348166    6.9879976 -0.0058468741 
  322000    2.4854433 -0.0076443128    3.2701787    6.9887874 0.0072359206 
  322200    2.4088674 -0.0048261082    3.3805228    6.9871448  0.014623986 
  322400    2.3985246 -0.0078963706     3.402642    6.9906876 0.0015509074 
  322600    2.3122437 -0.0087264016    3.5330317    6.9908922 -0.0065294728 
  322800    2.3959494 -0.0055454732    3.4041449    6.9906805 0.0023893886 
  323000    2.3078038 0.00056798237    3.5348941    6.9953926 -0.005559932 
  323200    2.3994591 -0.0056494404    3.4014927    6.9931862 -0.0046437165 
  323400    2.3488924 0.0076031993    3.4643961    6.9935311 -0.0077757428 
  323600    2.3902213 -0.0075308367    3.4824717    7.0584342 0.0025602988 
  323800    2.3761712 -0.0050654134     3.504671    7.0620346 -0.0062945802 
  324000     2.407336 -0.0054119203    3.4941022    7.0978425 0.0060708469 
  324200    2.5469193 -0.0080162862    3.2865079    7.0969114   0.01429191 
  324400    2.3158381 -0.0057593025    3.6211637    7.0873802 -0.0057208365 
  324600    2.3285118 -0.0064610353     3.603199    7.0877145 -0.0073678542 
  324800    2.3574351 -0.0017352377    3.5549756    7.0875796 0.0011516723 
  325000    2.4354458 -0.00091151203    3.4430416    7.0934253 0.0031395569 
  325200     2.508471 -0.0064291857    3.3652036    7.1195513  0.012452086 
  325400    2.4060625 -0.0057470634    3.5487175    7.1502134 -0.0031801008 
  325600     2.703045 -0.0041540047    4.3377782    8.3861125 -0.012098024 
  325800     2.952398 0.0044801689    3.9560943    8.3869003  0.018221029 
  326000    2.8689209 -0.004384136     4.085821    8.3826114 -0.0011666058 
  326200     2.917296 -0.0042556775     4.027478    8.3969222 -0.0025827498 
  326400    2.9068681  0.008254698    4.0327861    8.3991069 0.0017997577 
  326600    2.9379544 0.0040565729    4.0122942    8.4210224 0.0060056412 
  326800    2.9033597 -0.0012557908    4.0867521    8.4383024 0.00035787764 
  327000    2.7671362 -0.0065045184    4.2835542    8.4256254 -0.0056111127 
  327200    2.7134449 -0.00053567682    4.3538681    8.4214125 -0.021691485 
  327400    2.9652055 -0.0052361149    3.9831859    8.4234771 0.0051782747 
  327600     2.909005 0.00078773048    4.0623215    8.4243791  0.011356515 
  327800    2.8889803 -0.0029926172    4.0953469    8.4236024 0.0084983194 
  328000    3.0319678 0.0013272557    3.8715742    8.4185208  0.023640714 
  328200    2.7994083 -0.0048980874    4.3827978    8.5748588 -0.007067406 
  328400    2.9452216 0.0046156006    4.1702546     8.590437  0.010705949 
  328600    2.9432266 -0.0029548517     4.178388     8.588009 0.0062263655 
  328800    3.0713678 -0.0048918308    3.9840208     8.583818  0.012709169 
  329000    2.9897249 -0.0050382156    4.1141264    8.5913757 0.0053411516 
  329200    2.9646091 -0.004060645    4.1601465     8.600719 -0.0045718112 
  329400    3.0408069 -0.0053769129    4.0863962    8.6398906 -0.0018157829 
  329600    2.8264402 -0.0047716256    4.4097247    8.6424392 -0.012531998 
  329800    2.9505696 -0.0037811394    4.2235017    8.6433053 -0.0033431799 
  330000    2.8066545 -0.004767111    4.4372121    8.6402677 -0.0024300342 
  330200    2.9942315 -0.0040481402    4.1583489    8.6433448 0.0044217488 
  330400    2.8214794 -0.0058571083    4.4187482    8.6429398 -0.0067165177 
  330600    3.0759372 0.0035055458    4.0270037    8.6420489  0.013011074 
  330800    2.9835351 -0.0044842032    4.2008538    8.6693772  0.005518784 
  331000    2.8871586 -0.0045945302    4.3456304    8.6695529 -0.0028271388 
  331200      2.94176 -0.0040092042    4.2590296    8.6653975 0.0025288067 
  331400    2.8930679 -0.0037695772    4.3751829    8.7087897 -0.0040765561 
  331600    3.0375399 -0.0035712214    4.1111556    8.6615577 0.00039733648 
  331800    2.9614344 -0.0066079431    4.2416897    8.6749554 -0.0049995392 
  332000    2.8276821 -0.0044303887    4.4416709    8.6765885 0.0013499612 
  332200    3.0743079 -0.0039902991     4.320976    8.9260828 -0.0028291653 
  332400    2.8339235 -0.0041352558    4.6888118    8.9333819 -0.0070974751 
  332600    3.0867623 0.0015649555    4.2873149    8.9166488 -0.00058530695 
  332800    3.0946187 -0.0044930578     4.286618    8.9216726  0.008136424 
  333000    3.0821354 -0.005683249    4.3079038    8.9230527 0.00042407043 
  333200    3.0819187 -0.0048975502     4.412236    9.0278458 -0.003309574 
  333400    2.9541626 -0.0052706917    4.6040539    9.0277547 -0.0096224514 
  333600    3.0345555 0.0015673335     4.517252    9.0683183 -0.0010324568 
  333800    3.0318946 -0.0034672353    4.5659624    9.1080049 0.0024129065 
  334000    3.0971813 -0.0018917855    4.4840784    9.1255761 -0.00058496756 
  334200    3.0999201   0.00123328    4.6907858    9.3395147 -0.010775671 
  334400    3.1059334 -0.0092925141    4.6899562    9.3371746 0.00091120076 
  334600    3.1315732 -0.0021232991    4.6462205    9.3390481 -0.00031468195 
  334800    3.1922038 0.0030029821    4.7644326    9.5532857 -0.0099937245 
  335000    3.3700756 -0.0036516302    4.5035111    9.5523804 0.0016693299 
  335200    3.3597383 -0.0066206904    4.6326702    9.6630725 -0.0065594082 
  335400     3.172627 0.00032861615    4.9232405    9.6800692 -0.020324248 
  335600    3.4125457 -0.0043605895    4.5679371    9.6797699 -0.00010912778 
  335800    3.2306629 -0.005297235     4.955076    9.7932879 -0.011035945 
  336000    3.4681085 -0.0074157547    4.6523636    9.8444429 0.0065763383 
  336200    3.3517953 -0.0019221224    4.8196999    9.8428924  0.012282059 
  336400    3.3613263 -0.0061879268    4.8151198    9.8483356 -0.0072427683 
  336600    3.1862929 0.0044858092    5.0682015    9.8496757 -0.014863265 
  336800    3.1741472 -0.0044370348    5.1080486    9.8623907 -0.0082577511 
  337000    3.2882137 -0.0049127983    4.9362582    9.8611366 -0.0010342078 
  337200    3.3469734 -0.0023910766    4.8473429    9.8628373 -0.0034493803 
  337400    3.5318018 -0.0063872348    4.5967648    9.8853634  0.016521206 
  337600    3.3362047 -0.0077842587    4.8967151    9.8906716 -0.006609341 
  337800    3.4553023 -0.0056689629    5.1591378    10.333764 -0.000734189 
  338000    3.4818142 -0.0042669978    5.1138799    10.329656 0.0014079694 
  338200     3.347158 -0.0061362703    5.3263482    10.338374 -0.015966637 
  338400    3.6684526 -0.0079125354    4.8823925    10.374337 -0.0066275078 
  338600    3.5319403 0.0090865292    5.0971217    10.401402 -0.004876714 
  338800    3.6576161  0.033756646     4.944593     10.46196 0.0073867531 
  339000    3.5727615 -0.0083761336    5.1611502    10.509168 -0.0099295512 
  339200    3.6661705 -0.0037785271    5.0286654    10.521322 0.0056376333 
  339400    3.6540836 -0.0089683947     5.054425    10.523771  0.010881533 
  339600    3.6508182 -0.0056849983     5.603075    11.070809 -0.0091418184 
  339800    3.9762053 -0.0055129789    5.1643406    11.120077  0.018447437 
  340000     3.734923 -0.0096054991    5.5388873    11.128793 0.00035633834 
  340200    3.7854277 -0.0077435254    5.4634226    11.130909 -0.018771668 
  340400    3.7818193  0.044603472    5.4049759    11.119399 0.0085964622 
  340600     3.444562  0.014130401    5.9369609    11.115285 -0.015471087 
  340800    3.8833379 -0.0056057009    5.3101312    11.126545 -0.0028070969 
  341000    3.9365599 -0.0067665055     5.202431    11.097476 -0.0017863933 
  341200    4.0420401 -0.007167322    5.1581581    11.210942 -0.0037714419 
  341400    3.7875268 -0.0029051169    5.5597483     11.23522 -0.011640663 
  341600    3.9358281 -0.0048253956    5.4298419    11.325731 0.0036906653 
  341800    3.7333854  0.014929903     5.697788    11.309924 -0.014048311 
  342000    3.8499571 -0.0055358915    5.8094822     11.57592 -0.016982748 
  342200    4.0713679 -0.0079239088    5.4729024    11.568899 0.0020320894 
  342400    3.9866997 0.0099628839    5.5868912    11.573837 0.0091393236 
  342600    4.1298287 -0.0030342358    5.3865178     11.57505  0.013304555 
  342800    4.0742579 -0.0031632714    5.5160357    11.621125 0.0060734121 
  343000    4.0364636 -0.00052098896    5.5679184    11.618988 0.0024343691 
  343200    4.1388312 0.0075561461    5.4013151    11.613934 0.0083110672 
  343400    3.9272155 -0.0018408764    5.7359674    11.621929  0.007407564 
  343600    3.9924386 -0.003107832    5.7849292    11.767408 -0.0025144872 
  343800    3.9953102 -0.0033927847    5.7878582    11.774357 -0.0029057451 
  344000    4.0304353 -0.0056790696    5.7793995    11.816273 -0.00092533853 
  344200    3.9107392 0.0026126204    5.9609596    11.826673 -0.017772858 
  344400     4.182553 -0.0033419545    5.6221436    11.889414 0.0092826969 
  344600    4.2142351 -0.0075582047    5.6886314    11.999184  0.006362457 
  344800    4.1189856 0.0021984949    5.8456961    12.023205 -0.0021989844 
  345000    4.4223864  0.029779252    5.3639519    12.023909  0.023081812 
  345200    4.1645359 -0.003389269    5.7835712    12.023782 0.0084367667 
  345400    4.2562208 -0.0047505416    5.6539425    12.030249 0.0029443286 
  345600    4.2058033 -0.0040869732    5.7313501    12.032733 -0.0054769834 
  345800    4.2877027 -0.0011041558    5.6085346    12.035686 -0.0063692119 
  346000    4.0875229 -0.0037475571    5.9225972     12.04699 0.00060907222 
  346200    4.4060601 -0.004502485    6.4600451    13.061243 0.0055194812 
  346400    4.5796094 -0.0059638925    6.2126499    13.072577 -0.0054352256 
  346600    4.3968233 -0.0034175824    6.4687798    13.057215 -0.018896917 
  346800    4.5434539 -0.0046075652    6.2946678    13.101746 0.0063159782 
  347000    4.4951956 -0.0043001783    6.3511946     13.08623 -0.0098188817 
  347200    4.7413626 -0.00099009458    6.0979733     13.20538 0.00067241344 
  347400    4.8491003 -0.0062584769    5.9860753    13.249737 0.0032887003 
  347600    4.8617354 -0.00085384107    5.9924763    13.280486  0.019219763 
  347800    4.7381735 -0.00044396552    6.2513146    13.354486  0.013541603 
  348000    4.5867613 -0.0068777955    6.5645862    13.434322 -0.007070706 
  348200    4.8837384 -0.0022133413    6.4851018    13.804739  0.015684537 
  348400    5.1450852 0.0085028638    6.0722136    13.794387  0.017326811 
  348600    5.1363877 -0.0039450226    6.1034065    13.800092  0.015108481 
  348800    5.0653553  0.043207293     6.169017    13.806361  0.035580546 
  349000    5.1006045 0.00055847708    6.1452988    13.792841  0.029154154 
  349200    4.6740296 -0.00018901399    6.7875028    13.794763 -0.0058394769 
  349400    4.6139732 -0.0042544072     6.902308    13.815464 -0.028684292 
  349600      4.76206  0.071460822    6.5638184    13.774706  0.013771851 
  349800    4.8544512 -0.004831524    6.4718925    13.745004 0.0022618406 
  350000    4.7738467 -0.0034571426    6.6233154    13.776956 -0.010285203 
  350200     4.659645 0.0084159926    6.8264792    13.820778 -0.014901968 
  350400    4.9410709 -0.0014292262    6.4558372    13.862213  0.013790867 
  350600    4.9570159 -0.0045138596    6.6055265    14.032723 0.0061710476 
  350800    5.0572661  0.014504754    6.7079751    14.304489 -0.0043800145 
  351000    5.3720682 -0.0099941445    6.2680787    14.312055   0.02037957 
  351200    5.3014417 -0.0054197663    6.5713196    14.513984  0.017955327 
  351400    5.4505314 -0.0042083248    6.3264391    14.493835 0.0099069379 
  351600    5.2266487 0.0029445147    6.6673675    14.506265 0.0065627668 
  351800    5.4908223 0.00037520679    6.3151618    14.547547  0.031200051 
  352000    5.3814662 -0.0063974694    6.4960487    14.557711  0.014680878 
  352200    4.9113936  0.031806518    7.1629607     14.55808 -0.024389136 
  352400    4.8412222 -0.0066146819    7.2782715    14.529766 -0.024645824 
  352600    5.0538246 -0.0019172287     6.953476    14.528408 -0.013412112 
  352800    5.2146481 -0.0070994178    6.7329085     14.54377 0.0075074483 
  353000    5.2700611 -0.0086714769    6.6956097    14.587976 -0.0015072776 
  353200    5.4064725 -0.0078121177    6.6690433    14.766781 0.0016209531 
  353400    5.2464751  0.041202797    6.8819484    14.788828 0.0051772347 
  353600    5.4016482 -0.011543361     6.715335    14.802109 0.0025773818 
  353800    5.0268807  -0.01005377    7.2933363    14.819737 -0.028771071 
  354000    5.4427741 -0.012967237     6.652154    14.799161   0.02383333 
  354200    5.1932671 -0.0088884458    7.0449413    14.821959 -0.0011214791 
  354400    5.2674331 -0.0050835544    6.9466343    14.838648 -0.010379672 
  354600    5.1169432 -0.011451949    7.2892354    14.949262 -0.012363101 
  354800    5.4657319 -0.0075891277     6.744876     14.93168 -0.0032438525 
  355000    4.8428472 -0.0089340108    7.7003547    14.951966 -0.037735434 
  355200    4.8263008 0.0029997206    7.7333942    14.972133 -0.031917208 
  355400    5.3706133 -0.006246448    6.9842305    15.029773 0.0009378844 
  355600    5.1870994 -0.0068682262    7.2867131    15.056504 -0.00057527674 
  355800    5.4411826 -0.0044271692    6.9268003    15.079962 0.0098216921 
  356000    5.3514008 -0.0048298649    7.0210462    15.039201 0.0032395159 
  356200    5.1435505  0.010653086    7.3258693    15.047892 0.0090960241 
  356400    4.9775352 -0.0048062932    7.6122887    15.069956 -0.010383945 
  356600    5.4605981 0.0047947802    6.8831285     15.07462  0.013371121 
  356800    5.2554493  0.049479128    7.1575853    15.086196  0.013405657 
  357000    5.6634348 -0.0055709668    6.5934465    15.078671  0.012033295 
  357200    5.3866449 0.00089781338    7.0320687     15.10879 0.00025278166 
  357400     5.532893  0.039963699    6.7397639    15.074811  0.023100881 
  357600    5.2412598 -0.0034505863    7.2421722     15.09658 -0.0058801726 
  357800    5.3909675 -0.0036521463    7.0010091    15.079661 0.0069181798 
  358000    5.0142131 -0.00095841911     7.589244    15.105748  -0.02536917 
  358200    5.5650677 -6.5453976e-05    6.7871086    15.130364  0.014195474 
  358400    4.8947685 -0.0030268086    7.8034393      15.1388 -0.036198668 
  358600    5.3808493 -0.0018241893    7.0957111    15.161022 0.0094282363 
  358800    5.3970713 0.0072921154    7.0629489    15.161696 0.0038607806 
  359000    5.4221685 -0.0048205289     7.064558    15.188819 0.0033003273 
  359200    5.2050905  0.061968943    7.3161146    15.181715 -0.0084455404 
  359400    4.8629481 -0.0010123265    7.8927902    15.182459 -0.023707977 
  359600     5.312167 -0.00066185855    7.3515582    15.315061 -0.0039554215 
  359800    5.3859826 -0.0062924923    7.2438164    15.312355 -0.0073344218 
  360000     5.383432 -0.0069565546    7.2778447    15.341895 -0.012793697 
  360200    5.3129905 -0.0076939045    7.4722388    15.429944 -0.020993386 
  360400    5.4772207 -0.0049973635    7.2312115    15.437832 -0.0069913829 
  360600    5.1050058 0.0042755609    8.2716305    15.929488 -0.045273481 
  360800    5.5954702 -0.0022115317    7.6180449    16.004734 -0.0024043132 
  361000    6.2126767 -0.0066088362    6.8029981    16.110625   0.04627279 
  361200    5.8486037  -0.01279839    7.3808772    16.136485 -0.0050647617 
  361400    6.1193821 -0.0025428505    7.0786154    16.250439  0.012287195 
  361600    5.6189106 -0.0065426701    7.8368368    16.254338 0.00083101497 
  361800    5.6571683 -0.0056257193    7.8727437    16.348519 -0.0096628929 
  362000    5.8708012  0.018738991    7.5377502    16.358175 0.0021680741 
  362200    5.7238426 -0.0089371039    8.0488446    16.621268 -0.017899773 
  362400    6.1143799 -0.0055193494    7.4518092    16.613156  0.018696683 
  362600    5.8284175 -0.0087594289    7.9109998    16.640383 -0.0056749171 
  362800    6.0448874 -0.0025819775    7.6117724    16.671872 -0.013936628 
  363000    5.8619477 -0.0098788843    7.9248506    16.703384 -0.020919448 
  363200    6.3601331 -0.0063276177    7.4057241    16.934704  0.021502839 
  363400    6.4220902  0.021732854    7.3874683    17.037396   0.01900729 
  363600    6.0420602 -0.0082927326    8.1266149    17.176765 -0.0061075306 
  363800    6.3653668  0.010617457    7.6570069    17.210778  0.010406529 
  364000    6.5828412 -0.0068946263     7.355668    17.217971  0.046235176 
  364200    6.1518782 -0.0091723706    8.0162194    17.230132 -0.012866157 
  364400    6.3485035 -0.0080620583    7.7284368    17.238247 0.0049499283 
  364600    6.0952353 -0.002616851    8.1381934    17.273741 -0.0071013383 
  364800    6.4182609 -0.010338472    7.6976627    17.309778 -0.00083045904 
  365000    6.0347027   0.06773066    8.2110515    17.326194 0.0089980134 
  365200    6.3968395  0.044893364    7.7806182     17.41585  0.029431394 
  365400    6.0433545 -0.0033559533    8.4162429     17.47327 -0.0068681225 
  365600    5.8586901 -0.0064220808     8.675103    17.452209 -0.024211362 
  365800    5.6846524 0.0016238463    8.9734204     17.49765 -0.034481289 
  366000    6.2920734  0.010144013    8.0558538    17.499268 -0.0041736132 
  366200    6.4778146 -0.0021286061    7.7858743    17.495485  0.016745744 
  366400    6.0640715 -0.0062661148    8.4447527    17.529929 -0.0067086949 
  366600    6.2507028 -0.0062880365     8.251063    17.616021   -0.0113553 
  366800     6.495912  0.012962608    8.2051083    17.956942 -0.0013042031 
  367000    6.6506527 -0.0017639623    8.0458452    18.014944  0.010637844 
  367200    6.2680584 -0.0064607878    8.6639054    18.054711 -0.0093900193 
  367400    6.3117211 -0.004397786    8.6301519    18.088481 -0.013442068 
  367600    6.2479324 -0.0085775666    8.7062382    18.064753 -0.022626757 
  367800    6.5494031 -0.012056881    8.2280881    18.035098 0.0078383737 
  368000    6.6469192 -0.00026805852    8.3601812    18.325179  0.012223844 
  368200    6.4634462  0.005611753    8.7216001    18.417409 -0.0034478865 
  368400    6.8247181 0.0067622872    8.3302873    18.568877  0.010241934 
  368600    6.9772616 -0.0025152846    8.1233091    18.581319  0.018175125 
  368800    7.1470538 -0.0088404538    7.8186729    18.524915  0.052007592 
  369000    6.8081769 -0.0074287653    8.3470007      18.5466 0.0050648831 
  369200    6.6406098 -0.0018123623    8.5411376    18.495132 0.0062690538 
  369400    6.3177599 -0.0075074407     9.010036    18.474309 -0.017987301 
  369600    6.6352515 -0.0056254809    8.4854919     18.42764 -0.0093874666 
  369800    6.3520276  0.031518577    8.9099716    18.464645 -0.0080273042 
  370000    6.1633696 0.0011249535    9.3682922     18.60973 -0.030046186 
  370200    6.7834461 0.0015046082    8.7520587    18.923514 -0.013179614 
  370400    7.4472768 0.0050770789    8.6781407    19.848404  0.017690635 
  370600    7.0646717 -0.0077565826    9.3783665    19.962183 -0.013010963 
  370800    7.4380676  0.069152487    8.7644631    19.984995  0.033610005 
  371000    6.9730701 -0.0068650864    9.6155635     20.06294  -0.01884756 
  371200    7.5853288 -0.011991016    8.7986064    20.158774  0.027314447 
  371400    7.6664164  0.047191112    8.6234114     20.16433  0.033160368 
  371600    7.0071428 -0.0071970224    9.6859927     20.18412 -0.018854941 
  371800    7.1575185 -0.0070649445    9.4481173    20.171824 -0.0030800006 
  372000    7.0211797  0.037747439    9.5575803    20.121696 -0.0041974066 
  372200    7.7220366 -0.0074266545    8.5754198    20.145108  0.023220057 
  372400    7.3188395 -0.0026609372    9.1589647    20.128933 0.0017837022 
  372600    7.3771021 -0.0053875148    9.2506114    20.305202 0.0014758079 
  372800    7.9521929 -0.0042680854     8.401565    20.319469  0.026235389 
  373000    7.7645231 -0.0036456645    8.7864313    20.423598  0.031869143 
  373200     7.406011  0.030304697    9.4647917    20.598416 0.0082393465 
  373400    7.8103588 0.0029826664    8.9329888    20.645502  0.030256868 
  373600    8.2625849 0.0046466156    8.2841949    20.676363  0.056431386 
  373800    8.0167761 -0.0021035272    8.7923111    20.809205  0.047603546 
  374000    7.1316727  0.036826009    10.131822    20.860671 -0.016701369 
  374200    7.4278933 -0.0043238677     9.571076    20.702878 -0.0067793372 
  374400    7.1116391 -0.0039543845     10.05526    20.713294 -0.031579417 
  374600    8.0263632 -0.0032372259    8.9727438    21.002877   0.03186251 
  374800    7.7912813 -0.0030863484    9.3952078     21.07305 0.0050050458 
  375000    7.3882398 -0.002841052    10.037348    21.111183  -0.02287245 
  375200    7.2489221 -0.0040962928      10.2606    21.124311 -0.0037507458 
  375400    7.8352149 0.0059802957     9.540001    21.292777   0.01816796 
  375600    7.7536536 -0.0072509106    9.8839586    21.501224 -0.014092589 
  375800    7.6129637 -0.0050019182    10.214346    21.622934 -0.024434623 
  376000    7.6150246  0.025233227    10.173523    21.615435 -0.0082593603 
  376200    7.7737056 -0.0053616885    10.219344    21.868561 -0.015573432 
  376400    7.9861786  0.099921456    9.7508148    21.823861  0.025285308 
  376600    8.3967741 -0.0049431648    9.2663249    21.850084  0.042147208 
  376800    8.1127025  0.024449199    9.5890593    21.776322  0.042586377 
  377000    8.4310934 -0.0050430806    9.9963663    22.631478  0.020581838 
  377200    8.3841673 -0.0045272055    10.104679    22.669953  0.029964209 
  377400    7.9222251 -0.0041263308    10.878446    22.751563 -0.038461978 
  377600     8.348708 -0.0052400302    10.215273    22.726673 0.0034648738 
  377800    8.6429087 -0.0018340381    9.6550686    22.610949  0.013680886 
  378000    8.4455727 -0.0046923235     10.11834     22.77551  0.015661075 
  378200    7.6922463 -0.0055675229    11.269752    22.796637 -0.035677856 
  378400    8.5643485  -0.00326976    9.9478429    22.784508  0.019133058 
  378600    8.4518912 -0.0098389293    10.161547    22.823043 0.0086346958 
  378800    8.6772339  0.072613669     9.774491    22.856281  0.036899145 
  379000    7.5895988  0.028734158    11.287498    22.694792 -0.037745268 
  379200    8.5615265 -0.0044035722    10.128303    22.959604  0.014190863 
  379400     8.808414  0.085100443    9.6295311    22.920477  0.048711774 
  379600    7.8034364  0.024774124    11.533319    23.257245 -0.045773542 
  379800    8.5658116 -0.0075280408    10.614673    23.449273 -0.0045645419 
  380000    8.2570741  0.017916274     11.12217    23.519346  -0.01371187 
  380200     8.309806  0.021049982    11.119189    23.598556 -0.011049329 
  380400    8.6580056  0.024796602    12.579437    25.584582 -0.054611477 
  380600    10.091693 -0.0090730773    10.575098    25.695802  0.027971246 
  380800    10.499814 -0.00098512661    10.706444    26.447102  0.059921494 
  381000    10.073253 -0.0078355476    11.557724     26.65202  0.015966171 
  381200    9.6813132 -0.0017589728      12.2822    26.794964 -0.029132008 
  381400    9.8454105 -0.0083510725    12.459737    27.211928 -0.0076350734 
  381600    10.618538 -0.0063421879    11.692974     27.60627  0.035477317 
  381800    10.808941 -0.010156929    11.383005    27.577945  0.058837705 
  382000    9.6655236 -0.002783378    13.389943     27.87801 -0.024116597 
  382200    11.143379 -0.0062953204    14.042083    30.742284 -0.0092878452 
  382400    11.872155 -0.0088275815    12.905425    30.695698  0.044006323 
  382600    11.310678 -0.0081996287    13.839407    30.788525 0.0020297286 
  382800    11.316234  0.065968895    13.977193    31.008809  0.010199057 
  383000    11.299772 -0.0032578003    14.006827    30.944535 -0.0059128776 
  383200    11.727662 -0.00026138502    13.302543    30.884754  0.027352225 
  383400    11.566487 -0.0072303663    13.561471    30.895074  0.014022427 
  383600     10.87075 0.00076078915    15.999817    32.298341 -0.064354647 
  383800    10.476558 -0.0044249534    16.724722    32.427075  -0.10051355 
  384000    11.583501 -0.0073026526    15.869444    33.228482 -0.040689459 
  384200    40.833233 -0.0055328659    78.073376    139.28628    -0.527076 
ERROR on proc 0: Bond atoms 1372 1373 missing on proc 0 at step 384314 (src/ntopo_bond_all.cpp:63)
Last command:   run   500000
