LAMMPS (5 Jun 2019)
OMP_NUM_THREADS environment is not set. Defaulting to 1 thread. (src/comm.cpp:88)
  using 1 OpenMP thread(s) per MPI task


# ----------------- Init Section -----------------

include "simple_system.in.init"
        units lj
        atom_style angle
        pair_style hybrid lj/expand/twopiece 2.5 soft/shift 0.3 zero 1 morse 2.5
        bond_style hybrid harmonic
        angle_style hybrid harmonic
        special_bonds lj 0.0 0.0 0.0


# ----------------- Atom Definition Section -----------------

read_data "simple_system.data"
  orthogonal box = (-10 -10 -10) to (10 10 10)
  1 by 1 by 1 MPI processor grid
  reading atoms ...
  15 atoms
  scanning bonds ...
  2 = max bonds/atom
  scanning angles ...
  1 = max angles/atom
  reading bonds ...
  14 bonds
  reading angles ...
  13 angles
  2 = max # of 1-2 neighbors
  2 = max # of 1-3 neighbors
  4 = max # of 1-4 neighbors
  6 = max # of special neighbors
  special bonds CPU = 0.000110082 secs
  read_data CPU = 0.0231083 secs

# ----------------- Settings Section -----------------

include "simple_system.in.settings"
       pair_coeff 2 2 lj/expand/twopiece 0.5 1 0.5 0.
        pair_coeff 3 3 lj/expand/twopiece 1.0 1 0.5 0.
        pair_coeff 4 4 lj/expand/twopiece 1.0 1 0.5 0.
        pair_coeff 3 4 lj/expand/twopiece 1.0 1 0.5 0.
        pair_coeff 2 3 lj/expand/twopiece 0.5 1 0.5 0.
        pair_coeff 2 4 lj/expand/twopiece 0.5 1 0.5 0.

        pair_coeff 5 5 soft/shift 1.5 0.2
pair_coeff 2 5 zero
pair_coeff 1 5 zero
pair_coeff 3 5 zero
pair_coeff 4 5 zero

        pair_coeff 8 8 lj/expand/twopiece 0.5 1 0.5 0.
pair_coeff 5 8 lj/expand/twopiece 0.5 1 0.5 0.
pair_coeff 2 8 zero
pair_coeff 1 8 morse 100 4 0.5
pair_coeff 3 8 zero
pair_coeff 4 8 zero
pair_coeff 6 8 zero
pair_coeff 7 8 zero

        pair_coeff 6 6 soft/shift 1.5 0.2
pair_coeff 2 6 zero
pair_coeff 1 6 zero
pair_coeff 3 6 zero
pair_coeff 4 6 zero
        pair_coeff 6 7 soft/shift 1.5 0.2

        pair_coeff 7 7 soft/shift 1.5 0.2
pair_coeff 2 7 zero
pair_coeff 1 7 zero
pair_coeff 3 7 zero
pair_coeff 4 7 zero

        pair_coeff 1 1 lj/expand/twopiece 0.5 1 0.8 0.
        pair_coeff 1 2 lj/expand/twopiece 0.5 1 0.8 0.
        pair_coeff 1 3 lj/expand/twopiece 0.5 1 0.8 0.
        pair_coeff 1 4 lj/expand/twopiece 0.5 1 0.8 0.


        bond_coeff 1 harmonic 1000 0.4
        bond_coeff 2 harmonic 1000 0.4
        bond_coeff 3 harmonic 1000 0.15

        angle_coeff 1 harmonic 20 180
        angle_coeff 2 harmonic 20 180
        angle_coeff 3 harmonic 20 180
        angle_coeff 4 harmonic 20 180


# ----------------- Run Section -----------------

include "simple_system.in.run"
  dump dxyz all atom 100 poly.lammpstrj
  thermo 200
  minimize 1.0e-6 1.0e-8 10000 100000
WARNING: Using 'neigh_modify every 1 delay 0 check yes' setting during minimization (src/min.cpp:168)
Neighbor list info ...
  update every 1 steps, delay 0 steps, check yes
  max neighbors/atom: 2000, page size: 100000
  master list distance cutoff = 2.8
  ghost atom cutoff = 2.8
  binsize = 1.4, bins = 15 15 15
  5 neighbor lists, perpetual/occasional/extra = 5 0 0
  (1) pair lj/expand/twopiece, perpetual, skip from (5)
      attributes: half, newton on
      pair build: skip
      stencil: none
      bin: none
  (2) pair soft/shift, perpetual, skip from (5)
      attributes: half, newton on
      pair build: skip
      stencil: none
      bin: none
  (3) pair zero, perpetual, skip from (5)
      attributes: half, newton on
      pair build: skip
      stencil: none
      bin: none
  (4) pair morse, perpetual, skip from (5)
      attributes: half, newton on
      pair build: skip
      stencil: none
      bin: none
  (5) neighbor class addition, perpetual
      attributes: half, newton on
      pair build: half/bin/newton
      stencil: half/bin/3d/newton
      bin: standard
Per MPI rank memory allocation (min/avg/max) = 8.645 | 8.645 | 8.645 Mbytes
Step Temp E_pair E_mol TotEng Press 
       0            0 -7.8088185e-05    579.81849    579.81842   -0.7586748 
     200            0 -0.00026562824 5.2268498e-06 -0.00026040139 -4.6972449e-08 
     277            0 -0.00026562816 3.1075471e-06 -0.00026252061 -2.072756e-08 
Loop time of 0.0195385 on 1 procs for 277 steps with 15 atoms

64.6% CPU use with 1 MPI tasks x 1 OpenMP threads

Minimization stats:
  Stopping criterion = energy tolerance
  Energy initial, next-to-last, final = 
         579.818415454 -0.000262520384814 -0.000262520612109
  Force two-norm initial, final = 8660.82 0.0113121
  Force max component initial, final = 2375.28 0.00505444
  Final line search alpha, max atom move = 0.125 0.000631805
  Iterations, force evaluations = 277 1704

MPI task timing breakdown:
Section |  min time  |  avg time  |  max time  |%varavg| %total
---------------------------------------------------------------
Pair    | 0.0023208  | 0.0023208  | 0.0023208  |   0.0 | 11.88
Bond    | 0.010376   | 0.010376   | 0.010376   |   0.0 | 53.11
Neigh   | 0.00052027 | 0.00052027 | 0.00052027 |   0.0 |  2.66
Comm    | 0.00074857 | 0.00074857 | 0.00074857 |   0.0 |  3.83
Output  | 0.0022808  | 0.0022808  | 0.0022808  |   0.0 | 11.67
Modify  | 0          | 0          | 0          |   0.0 |  0.00
Other   |            | 0.003292   |            |       | 16.85

Nlocal:    15 ave 15 max 15 min
Histogram: 1 0 0 0 0 0 0 0 0 0
Nghost:    0 ave 0 max 0 min
Histogram: 1 0 0 0 0 0 0 0 0 0
Neighs:    3 ave 3 max 3 min
Histogram: 1 0 0 0 0 0 0 0 0 0

Total # of neighbors = 3
Ave neighs/atom = 0.2
Ave special neighs/atom = 5.2
Neighbor list builds = 28
Dangerous builds = 0
  timestep 0.001
  velocity all create 3.0 49840
  fix   fxnvt all nvt temp 3.0 3.0 500.0
  run   500000
Neighbor list info ...
  update every 1 steps, delay 10 steps, check yes
  max neighbors/atom: 2000, page size: 100000
  master list distance cutoff = 2.8
  ghost atom cutoff = 2.8
  binsize = 1.4, bins = 15 15 15
  5 neighbor lists, perpetual/occasional/extra = 5 0 0
  (1) pair lj/expand/twopiece, perpetual, skip from (5)
      attributes: half, newton on
      pair build: skip
      stencil: none
      bin: none
  (2) pair soft/shift, perpetual, skip from (5)
      attributes: half, newton on
      pair build: skip
      stencil: none
      bin: none
  (3) pair zero, perpetual, skip from (5)
      attributes: half, newton on
      pair build: skip
      stencil: none
      bin: none
  (4) pair morse, perpetual, skip from (5)
      attributes: half, newton on
      pair build: skip
      stencil: none
      bin: none
  (5) neighbor class addition, perpetual
      attributes: half, newton on
      pair build: half/bin/newton
      stencil: half/bin/3d/newton
      bin: standard
Per MPI rank memory allocation (min/avg/max) = 8.769 | 8.769 | 8.769 Mbytes
Step Temp E_pair E_mol TotEng Press 
     277            3 -0.00026562816 3.1075471e-06    4.1997375 0.0052499793 
     400    2.0063269 -0.00021901269    1.3953604    4.2039991 -0.0035901963 
     600    1.7652842 -0.00036219517    1.7369351    4.2079708 0.0061424601 
     800    1.8444644 -0.00027144275    1.6262921    4.2082708 0.0034150007 
    1000    1.8695723 -0.00031753358    1.5899466    4.2070303 0.0036035817 
    1200    1.4675602 -0.0002344875    2.1549079    4.2092577 -0.0010683165 
    1400    1.4675966 -0.00026085823    2.1559456      4.21032 -0.004175012 
    1600    1.5879496 -0.00035144827     1.985013     4.207791 0.0059351259 
    1800   0.90947286 -0.0002371289    2.9388898    4.2119147 -0.007233032 
    2000    1.7073849 -0.00030474838    1.8165643    4.2065984  0.004243597 
    2200    1.5086058 -0.00027271058    2.0983361    4.2101115 -0.0033097347 
    2400    1.7851977 -0.00033899399    1.7100492     4.208987 0.0003345022 
    2600    1.6146762 -0.00028414126    1.9493939    4.2096564 0.0012285236 
    2800     1.491403 -0.00036012245    2.1229403    4.2105444 0.0028916612 
    3000     1.485383 -0.00020474822    2.1295869    4.2089183 -0.0025615517 
    3200    1.3141881 -0.00042533195    2.3700084    4.2094465 -0.0010541849 
    3400     1.249797 -0.00020984048      2.46154    4.2110459 -0.0067348195 
    3600     1.483264 -0.00042400889    2.1341828    4.2103284 0.0041457046 
    3800    1.1286109 -0.00018348964    2.6301606    4.2100324 -0.0078112157 
    4000    1.7383501 -0.00039228758    1.7710648    4.2043626  0.006382802 
    4200    1.5832296 -0.00024814193    1.9908915    4.2071648 -0.0045680931 
    4400    1.3673512 -0.000424655    2.2932431    4.2071101 -0.00028090515 
    4600    1.4249102 -0.0003000454    2.2163458      4.21092   0.00203093 
    4800    1.5608572 -0.00024047822    2.0248166    4.2097762 -0.00017666424 
    5000    1.5225201 -0.00028011734    2.0795285    4.2107765 0.0020835687 
    5200    1.9557016 -0.00037247001    1.4661161    4.2037259 0.0043671095 
    5400    1.5356931 -0.00025111478    2.0598555    4.2095748 -0.0017020508 
    5600     1.457617 -0.00028313355    2.1700247    4.2104053 -0.0013851083 
    5800    1.2227171 -0.00031065341    2.4987798    4.2102731 0.00095709102 
    6000    1.4853068 -0.00028998156    2.1288028    4.2079424 -0.0021792273 
    6200    1.0960874 -0.00031728862    2.6813244    4.2155295 -0.00085050643 
    6400    1.9561223 -0.00030653195    1.4669669    4.2052316 0.0026718197 
    6600    1.6882166 -0.00027549023    1.8469909    4.2102186 -0.00051849664 
    6800    1.3585851 -0.00032678781    2.3088715    4.2105638 0.00085445452 
    7000    1.4543612 -0.00032570561    2.1714181    4.2071981 -0.0018345399 
    7200    1.3407224 -0.0002938186    2.3318843    4.2086018 -0.00014683541 
    7400     1.689738 -0.00025059803    1.8424623    4.2078448 0.00026083367 
    7600    1.6349071 -0.00027289022    1.9199865    4.2085835 0.00062204573 
    7800    1.3153178 -0.00031363919    2.3723497     4.213481 0.0013379228 
    8000    1.7083988 -0.00031692986    1.8161455    4.2075868 0.0013485391 
    8200    1.1974917 -0.00028113127    2.5367232    4.2129305 -0.0018754932 
    8400    1.3794663 -0.00029181244    2.2765077    4.2074687 -0.0010653165 
    8600    1.3111032 -0.0002828769    2.3728746    4.2081363 -0.0026871391 
    8800    2.0330942 -0.00033876383    1.3571512    4.2031443 0.0053725001 
    9000    1.4905988 -0.00028289015    2.1234483    4.2100037 -0.0035933464 
    9200    1.3245844 -0.00028855216    2.3571796    4.2113092 0.00041389661 
    9400    1.7461192 -0.00028156774    1.7662726    4.2105579 9.719001e-05 
    9600    1.9182573 -0.00027188027    1.5223414    4.2076297 0.0021167922 
    9800    1.5607629 -0.0003582025    2.0212119    4.2059218 -6.7125395e-06 
   10000    1.5178164 -0.00029519938    2.0875658    4.2122136 0.00033435135 
   10200    1.2816813 -0.00027468749    2.4186059    4.2126851 -8.6743869e-06 
   10400    1.1947753 -0.00027527308    2.5419865    4.2143966 -0.0028051696 
   10600    1.1190682 -0.00033129945    2.6465624    4.2129266 0.0024906311 
   10800    1.3888739 -0.00027389833    2.2633125     4.207462 -0.0048847687 
   11000    1.4850039 -0.00033892446    2.1305447    4.2092112 0.0056978562 
   11200    1.4218349 -0.00022855862    2.2190554    4.2093957 -0.0059339341 
   11400    1.5170995 -0.00030219762    2.0852069     4.208844 0.0018281125 
   11600    1.6156091 -0.00029148138    1.9480898    4.2096511 0.0010470983 
   11800    1.2487169 -0.00033027863    2.4601604    4.2080337 -0.0024070208 
   12000    2.1583219 -0.0002743167    1.1826181    4.2039944 0.0023545225 
   12200    1.4158362 -0.00030140354     2.229084    4.2109533 0.00053579232 
   12400    1.5498674 -0.00024935294    2.0385941    4.2081591 -0.0023892912 
   12600    1.6380128 -0.00032593237      1.91493     4.207822 0.0010635333 
   12800    1.6163169 -0.00033576223    1.9467767    4.2092847 0.0044520226 
   13000    1.8158004 -0.00025645844    1.6671488    4.2090129 0.0015775826 
   13200     1.810683 -0.00026291521    1.6738094    4.2085027 0.0013649126 
   13400    1.6290673 -0.00028773865    1.9305734    4.2109799 0.0043864182 
   13600   0.87952842 -0.00034852561    2.9828045    4.2137958 -0.0016674813 
   13800    1.4215253 -0.00025740288    2.2197951    4.2096731 -0.00056383482 
   14000    1.2574961 -0.00033567238    2.4509711    4.2111299 0.0022226702 
   14200    1.3293592 -0.00020605095    2.3501677    4.2110645 -0.0032219153 
   14400    1.5653767 -0.00037237976     2.018656     4.209811  0.002523745 
   14600    1.1039088 -0.00024896239    2.6677496    4.2129729 -0.0072302294 
   14800    1.3975168 -0.00037913521    2.2518964    4.2080408 0.0033782417 
   15000     1.855745 -0.00022892682    1.6109519     4.208766 -0.0044797771 
   15200    1.5178388 -0.00034998155    2.0835824    4.2082067 -0.0004196522 
   15400    1.5747155 -0.00027651414    2.0075331    4.2118583 -0.0053068543 
   15600    1.7207427 -0.00036257865    1.7999244    4.2086016 0.0047789699 
   15800    1.3329982 -0.000299337    2.3464746    4.2123727 0.00013699297 
   16000    1.6949507 -0.0002561196    1.8360799    4.2087547 0.0014928135 
   16200    1.2481804 -0.00023090563    2.4654586    4.2126803 -0.006698413 
   16400    0.9700508 -0.00037767807    2.8561677    4.2138611 0.0039730435 
   16600    1.7585171 -0.00025268844    1.7464995    4.2081708 -0.0020316115 
   16800    1.5031285 -0.00028570753    2.1029095    4.2070036 -0.00029987286 
   17000    1.3043076 -0.00028229946     2.388091    4.2138393 0.0016382037 
   17200    1.9044885 -0.00035746759    1.5402303    4.2061568 0.0014443203 
   17400    1.3528351 -0.00025502407    2.3178617    4.2115759 -0.0050553372 
   17600    1.6739444 -0.00038386424    1.8586992    4.2018374 -0.00017122861 
   17800    1.3182719 -0.00024477889    2.3689946    4.2143304 -0.0033868758 
   18000    1.3269735 -0.00034706719    2.3532665    4.2106824 -0.0010153215 
   18200    1.6065047 -0.00027586519    1.9607992    4.2096298 -0.0036760959 
   18400    1.2203193 -0.00046487442    2.5047288    4.2127109 0.00089223161 
   18600    1.7916298 -0.00021866365    1.6997891    4.2078521 -0.0035891944 
   18800    1.7574686 -0.00034460826       1.7503    4.2104115 0.0028768227 
   19000     1.433739 -0.00024826303    2.2040899    4.2110763 0.00027127133 
   19200    1.3848449 -0.00045337483    2.2704819    4.2088114  0.003917582 
   19400    1.5120433 -0.00023517156    2.0929316     4.209557 -0.0024701683 
   19600    1.6852325 -0.00031062362    1.8501968    4.2092117 -0.00047913054 
   19800    1.7653197 -0.00022433458    1.7380309    4.2092541 -0.001027912 
   20000    1.8231261 -0.00041886191    1.6563648    4.2083226 0.0068168528 
   20200    1.7626439 -0.0002583167     1.740742    4.2081852 0.00038233889 
   20400    1.6679137 -0.00032413234    1.8732052    4.2079604 -0.0033899415 
   20600    1.5974953 -0.00026387355    1.9776963    4.2139259 -0.00057672368 
   20800    1.8627356 -0.00032405083    1.6027474    4.2102531 0.0012967056 
   21000    1.6156889 -0.0002173571    1.9490539     4.210801 -0.0021447069 
   21200    1.5471669 -0.00036577691    2.0462867    4.2119546 0.0047638731 
   21400     1.954272 -0.00020237144    1.4735383    4.2093167 -0.0038382588 
   21600     1.990449 -0.00040974077    1.4228211    4.2090399 0.0061443987 
   21800    1.2875116 -0.00025705164    2.4109228     4.213182 -0.0086602053 
   22000    1.3537134 -0.00031876521    2.3155343    4.2104143 -0.0015726813 
   22200    1.8703826 -0.00027856947    1.5924427    4.2106998 0.0010024815 
   22400    1.7374348 -0.00029946599    1.7809038    4.2130131 0.0019088347 
   22600     1.625151 -0.00024172862    1.9368048    4.2117744 -0.0029540609 
   22800    1.5752279 -0.00034434905     2.006874    4.2118487  0.004401492 
   23000      1.34081 -0.00030931999    2.3361429    4.2129675 0.0004056726 
   23200    1.1947883 -0.0002416583     2.540579    4.2130411 -0.0034587907 
   23400    1.7060904 -0.00040500748    1.8214292    4.2095508 0.0066985375 
   23600    1.8717995 -0.00022048356    1.5903205    4.2106193 -0.0004334738 
   23800     1.464752 -0.0002931437    2.1623317    4.2126913 -0.0029926374 
   24000    1.7305581 -0.00035397127    1.7884518    4.2108791 0.0033698554 
   24200    1.5838258 -0.00048496897    1.9915641    4.2084352 -0.00036406843 
   24400    1.7448307 -0.00023300656    1.7667049    4.2092349 -0.0051010241 
   24600    1.3721618 -0.00039916194    2.2928971    4.2135244 0.0017970343 
   24800    1.4613996 -0.00021162443    2.1660835    4.2118313 -0.0080029408 
   25000    1.6536209 -0.0004202398    1.8923265    4.2069755 0.00098918841 
   25200    1.2172573 -0.00029878607    2.5091074    4.2129688 -0.00069506244 
   25400    1.4061596 -0.00028564701    2.2420518    4.2103896 -0.0017923416 
   25600     1.161338 -0.00023968183      2.58879    4.2144236 -0.0046095595 
   25800     1.269767 -0.00039954318    2.4359851    4.2132594 0.0053797283 
   26000    1.4674923 -0.0003217071    2.1588758    4.2130432 0.0010787639 
   26200     1.544174 -0.00028066474    2.0507808    4.2123437 -0.0012050522 
   26400     1.657173 -0.00027109521     1.891605    4.2113761 -0.0024909148 
   26600    1.5904165 -0.000448091    1.9835287    4.2096638 0.0039256462 
   26800     1.384615 -0.00027677447    2.2746752    4.2128594 -0.0042971927 
   27000    1.4185041 -0.00038473491    2.2264428    4.2119638 0.00081211687 
   27200    1.4879694 -0.00021939911    2.1309389    4.2138767 -0.0035268708 
   27400    1.4662247 -0.00040253757    2.1610959    4.2134079 0.0060433517 
   27600    1.3933915 -0.00026440202    2.2623966    4.2128803  -0.00532539 
   27800    1.5389861 -0.00033436265    2.0567993    4.2110455 -0.00041353982 
   28000    1.4431553 -0.00030713693    2.1946419    4.2147523 0.00041164466 
   28200    1.5680988 -0.00027035708    2.0165263    4.2115942 -0.0012646851 
   28400    1.6444075 -0.00028455225    1.9096142    4.2115001 0.0010401021 
   28600    1.5226811 -0.00034698585    2.0811517    4.2125583 -0.00052613461 
   28800    1.7607292 -0.00038161511    1.7462808    4.2109201  0.006180511 
   29000    1.9037082 -0.00021850915    1.5465809    4.2115539 -0.0046123831 
   29200    1.5629467 -0.00033636535     2.025959     4.213748 0.0027020631 
   29400    1.3846847 -0.00026937399    2.2736855    4.2119747 -0.0049708465 
   29600     1.440245 -0.00045158044      2.19492    4.2108114 0.0042201541 
   29800    1.7490971 -0.00020972284     1.762845    4.2113713 -0.0042856209 
   30000    1.5554196 -0.00034612081    2.0355718    4.2128132 0.0060339054 
   30200    1.3597754 -0.00024135079    2.3109593    4.2144035 -0.0034871179 
   30400    1.5298098 -0.00045342603    2.0733423    4.2146226 0.0036000262 
   30600     1.882097 -0.00035145061    1.5778712    4.2124555 0.0037599035 
   30800    1.3571773 -0.00025873589    2.3140934    4.2138829 -0.0026760888 
   31000    1.7883961 -0.00025377167    1.7108021    4.2143028 0.0011221945 
   31200    1.3617498 -0.00043712905    2.3089021    4.2149147  0.007874886 
   31400    1.7164848 -0.00029287454    1.8083783    4.2111642 -0.00017892621 
   31600    1.6652899 -0.00025612376    1.8843048    4.2154546 0.00054396719 
   31800     1.834035 -0.00031779164    1.6455347    4.2128659 0.0044080711 
   32000    1.5298239 -0.00029010148    2.0712819    4.2127453 -0.0035645997 
   32200     1.214293 -0.00034571428     2.516907    4.2165715 -0.00074985814 
   32400    1.5326501 -0.00044272895    2.0677175    4.2129848  0.001495889 
   32600     1.742462 -0.00027111609    1.7746292    4.2138049 -0.00030348785 
   32800     1.703511 -0.00029930295     1.829999     4.214615 0.00099158012 
   33000    1.7944456 -0.0002674012    1.7018474    4.2138038 -0.0013113465 
   33200    1.2678629 -0.00033470871    2.4407508    4.2154242 -0.0039374646 
   33400    1.7729269 -0.00040565818    1.7313914    4.2130833 0.0060864161 
   33600    1.6464425 -0.00024253547    1.9102999    4.2150769 -0.0024690484 
   33800    1.8593253 -0.00030903836    1.6108793    4.2136256 0.0044329079 
   34000    1.6376197 -0.00028516554    1.9218311    4.2142135 -0.0020060599 
   34200    1.5006723 -0.00043290854     2.115222    4.2157303 0.0037078623 
   34400    1.4716034 -0.00029802117    2.1542821    4.2142289 -0.0026637952 
   34600    1.3047552 -0.00029147752    2.3889009    4.2152667 -0.001924424 
   34800    1.8118923 -0.00027555297    1.6778837    4.2142574 0.0001399923 
   35000     1.514273 -0.00038655645    2.0947531    4.2143487 0.0050328687 
   35200     1.345925 -0.00027578894    2.3319665    4.2159857 -0.002930331 
   35400    1.8223808 -0.00038283069     1.662346    4.2132963 0.0060791911 
   35600    1.2238727 -0.00022878813    2.5038557    4.2170487 -0.0049840835 
   35800    1.3003736 -0.00033528872    2.3967093    4.2168971 -0.0010113567 
   36000    1.4616528 -0.0002593175    2.1690111    4.2150656 -0.0042825004 
   36200    1.5855439 -0.00036762069    1.9956111    4.2150049 0.0012042834 
   36400    1.5467931 -0.00031509868    2.0515351    4.2167304 0.0038690132 
   36600    1.4917841 -0.00027270411    2.1293649    4.2175899 -0.0022073644 
   36800    1.4789694 -0.00026330034    2.1464982    4.2167921 0.00036155753 
   37000    1.3271884 -0.00037746638    2.3582568    4.2159432 -0.001397792 
   37200    1.3237356 -0.00035533204    2.3652305     4.218105 0.00095157385 
   37400     1.658819 -0.00021767588    1.8921667    4.2142956 -0.007277674 
   37600    1.6379885 -0.00037173266    1.9228195    4.2156316  0.008851295 
   37800    1.4497895 -0.0002412591    2.1858482    4.2153122 -0.0040611586 
   38000    2.0056558 -0.00043225819    1.4055501     4.213036 0.0062879929 
   38200    1.6359962 -0.00034256794    1.9277137    4.2177658 0.0036279303 
   38400    1.8237013 -0.00024724102    1.6613821    4.2143167 -0.0017122818 
   38600    1.9542999 -0.00023753165    1.4773297     4.213112 0.0004075898 
   38800    1.4627797 -0.00040524797    2.1688854    4.2163717 0.0038296182 
   39000     1.520326 -0.0003268865    2.0854079    4.2135375 0.0021281912 
   39200    1.7998966 -0.0002745011    1.6936855    4.2132662 -0.003430625 
   39400     1.718092 -0.00032128231    1.8137275     4.218735 0.0045634926 
   39600    1.8187633 -0.00026363051    1.6706929     4.216698 -0.00040878364 
   39800    1.5545752 -0.00034300736    2.0412461    4.2173083 -0.00031827613 
   40000    1.1631314 -0.00038298224    2.5905644    4.2185653 -0.0022616874 
   40200    1.6433024 -0.00043448922    1.9137799    4.2139688 0.0028680996 
   40400    1.5229998 -0.00019729768    2.0854748    4.2174772 -0.003479731 
   40600    1.8011471 -0.00041476426    1.6940028    4.2151939 0.0064623942 
   40800    1.4102462 -0.00025322152    2.2424987    4.2165902 -0.00099345654 
   41000    1.5399645 -0.00036475938    2.0596486    4.2152342 -0.00051817211 
   41200    1.4868489 -0.00032359216    2.1349226    4.2161874 -8.212197e-05 
   41400    1.5987141 -0.00025476431    1.9787365    4.2166814 -0.0024379213 
   41600    1.4885149 -0.00028919981    2.1328252    4.2164569 -0.0018600886 
   41800    1.3905362 -0.0003351931    2.2728899    4.2193055 0.00076728792 
   42000    1.6473744 -0.00046435552    1.9099939    4.2158537 0.0029599472 
   42200    1.4166739 -0.00029513504    2.2350275    4.2180758 0.0006993625 
   42400    1.7386792 -0.00024602454    1.7827494    4.2166542  -0.00165377 
   42600    1.9837931 -0.00032087839    1.4394904    4.2164798 0.0023699587 
   42800     1.271356 -0.00041013776    2.4386071    4.2180954  -0.00143959 
   43000    1.2194331 -0.00029525615    2.5125442    4.2194552 -0.0090016752 
   43200    1.2660387 -0.00038398328    2.4495102    4.2215804 -1.3197058e-05 
   43400    2.0339989 -0.00021833519    1.3669634    4.2143435 -0.004039046 
   43600    1.2167014 -0.00033981357    2.5177472    4.2207894 0.0033398685 
   43800    1.9239125 -0.00036172315     1.520897    4.2140128 -0.0017873307 
   44000    1.5493378 -0.0003448255    2.0493308    4.2180589 -0.00094906185 
   44200    1.5888736 -0.00028840394    1.9938737    4.2180084 -0.00037346264 
   44400    1.2713207 -0.00032170404    2.4402625    4.2197897 0.00032983419 
   44600    1.4976282 -0.00031356829    2.1228226    4.2191886 0.00066304284 
   44800    1.3085855 -0.00033331186    2.3866981    4.2183845 -0.00072591901 
   45000    1.4862508 -0.0003592274    2.1338495    4.2142414 0.0048435587 
   45200    1.6310314 -0.00023486968    1.9347978    4.2180068 -0.0034170558 
   45400    1.4631933 -0.00033799514    2.1691709    4.2173035 0.0021987864 
   45600    1.5269133 -0.0002805187    2.0815216    4.2189197 -0.0030314512 
   45800    1.9424667 -0.00040926103    1.4982054    4.2172496 0.0051674951 
   46000    1.6249028 -0.0002768313     1.943416    4.2180031 -7.0171412e-06 
   46200     1.824307 -0.00026818458    1.6647921    4.2185537 0.0021900961 
   46400    1.7369666 -0.00032133675    1.7873586    4.2187905 0.00080155762 
   46600    1.7217327 -0.00041567955    1.8065451    4.2165552 -8.9803392e-05 
   46800    1.3035592 -0.00029970273    2.3940685    4.2187518 -0.004850819 
   47000    1.2428307 -0.00038589974    2.4816495    4.2212265 0.0012498541 
   47200    1.3345913 -0.00019197593    2.3519802     4.220216 -0.0046087541 
   47400    1.3947167 -0.00038079287    2.2674533    4.2196759 0.0038411316 
   47600    1.5500929 -0.00030661046    2.0483066      4.21813 0.0026623468 
   47800    1.8282506 -0.00032747836    1.6562032    4.2154265 -8.6769443e-05 
   48000    1.7446363 -0.00023695552    1.7767123    4.2189661 -0.002055351 
   48200    1.9501176 -0.00039340487    1.4868118     4.216583 0.0048960568 
   48400    1.4878111 -0.00021379962    2.1359141    4.2186358 -0.0048496081 
   48600    1.4926796 -0.00037823346    2.1307375    4.2201107 0.0051675619 
   48800    1.3501982 -0.00030501362    2.3309969    4.2209695 0.00038497983 
   49000    1.6047542 -0.00028426844    1.9721768    4.2185484 -0.00030859224 
   49200    1.6060679 -0.00025120653    1.9708842     4.219128 -0.0037888561 
   49400    1.2226073 -0.00042378959    2.5097158    4.2209422 0.0041454058 
   49600    1.7317019 -0.00023881341    1.7946326    4.2187764 -0.0060243136 
   49800    1.8742289 -0.00029488363    1.5952609    4.2188865 0.0001974694 
   50000    1.7345654 -0.00033546685    1.7889125    4.2169686 0.0037133597 
   50200    1.4517453 -0.00042711915    2.1883532    4.2203694 0.0035761156 
   50400    1.5235334 -0.00025975301    2.0902987    4.2229857 -0.00050489927 
   50600    1.8121072 -0.00044590352    1.6810167    4.2175209 0.0033937702 
   50800    1.2586622 -0.00022326426    2.4601105    4.2220142 -0.0055712876 
   51000    1.4933339 -0.00035908415    2.1289934    4.2193017 -0.00074757575 
   51200    1.4062235 -0.00025003195    2.2513835    4.2198464  -0.00469895 
   51400    1.2742484 -0.00042762749     2.436901    4.2204211 0.0058300915 
   51600     1.465788 -0.00019256347    2.1677404    4.2196511 -0.0078968359 
   51800    1.3681186 -0.00037812593     2.307061     4.222049 0.0035816183 
   52000    1.6120116 -0.00026538807    1.9619698    4.2185206 -0.005130346 
   52200    1.1852778 -0.0004864038     2.563083    4.2219856 -0.00077735735 
   52400    1.3245983 -0.00035457078    2.3693009     4.223384 0.00061751553 
   52600    1.5882178 -0.00028250959    1.9963825    4.2196049 -0.0021701448 
   52800    1.6767962 -0.00026703262    1.8731254     4.220373 0.00033122985 
   53000    2.1399583 -0.00039065637    1.2238136    4.2193645 0.0072109769 
   53200    1.2494189 -0.00027426069    2.4732838     4.222196 -0.0053304123 
   53400    1.2353103 -0.0003489268    2.4937592    4.2228447 -0.0018104688 
   53600    1.7866134 -0.0003275407    1.7214961    4.2224274 0.0041069761 
   53800     1.674597 -0.00026954701    1.8764468    4.2206131 -0.0018503474 
   54000    1.5364881 -0.00028028393    2.0714066    4.2222097 -0.0016665879 
   54200     1.369611 -0.00041403628    2.3033603    4.2204017 0.0029484929 
   54400    1.6200046 -0.00025693134    1.9536113    4.2213608 -0.0032685694 
   54600    1.3853653 -0.00027048221    2.2826958    4.2219368 -0.0060078849 
   54800    1.5367124 -0.00030970267    2.0737224      4.22481 0.0023193902 
   55000   0.87792604 -0.00040141212    2.9983538    4.2270488 0.0028154421 
   55200    1.6669579 -0.00019536835    1.8867932    4.2203389 -0.0058863678 
   55400    1.3390688 -0.00035938677     2.350111    4.2244479 0.0052708565 
   55600    1.5096462 -0.00023797255    2.1090489    4.2223156 -0.0030133603 
   55800    1.7466605 -0.00047621435    1.7760114    4.2208598 0.00076020187 
   56000    1.6236239 -0.00031611095    1.9492005    4.2219578 -0.001470934 
   56200    1.7998103 -0.00032250977    1.7002101    4.2196219 0.00018975382 
   56400    1.7216626 -0.00024572575    1.8116487    4.2217306 -0.0014459557 
   56600    1.7061465 -0.00037311046    1.8323416    4.2205736 0.0035699974 
   56800    1.4679922 -0.00030980871     2.169644    4.2245233 0.0014124038 
   57000    1.5614397 -0.00037279561    2.0376654    4.2233082 0.0022033339 
   57200    1.3542497 -0.00023513615    2.3281915     4.223906 -0.0029755842 
   57400     1.429982 -0.0003175637     2.222209    4.2238662 -0.0010332816 
   57600    1.2415446 -0.00026378211    2.4877329    4.2256316 -0.0053096311 
   57800    1.5818236 -0.00040225494    2.0103634    4.2245142 0.0054439001 
   58000    1.4996109 -0.00037545406    2.1252696    4.2243494  0.002949203 
   58200     2.062934 -0.00022121697    1.3326405    4.2205268 -0.0027077935 
   58400    1.3604651 -0.00032391464    2.3204659     4.224793 -0.00086229811 
   58600    1.7656779 -0.00033797258    1.7496467    4.2212578 0.00043547593 
   58800     1.183308 -0.00030199874    2.5692056    4.2255347 -0.0049781046 
   59000    1.9818972 -0.00034236871    1.4476416    4.2219552  0.004043372 
   59200    1.7161158 -0.00023096484    1.8228891    4.2252202 -0.0011953234 
   59400    1.8103025 -0.00033019473    1.6909073    4.2250006 0.0015654117 
   59600    1.3893109 -0.00035690185    2.2795936    4.2242719  0.002831311 
   59800    1.8847725 -0.00031992241    1.5846435     4.223005 -0.0017145612 
   60000    1.6444917 -0.00029869847    1.9240757    4.2260654 -0.0021360908 
   60200    1.6167444 -0.00028306344    1.9608865    4.2240457 -0.0032823867 
   60400    1.6204909 -0.00030925928    1.9555049    4.2238829 0.0017518298 
   60600    1.3595782 -0.00040116808    2.3223276    4.2253359 -0.00087818683 
   60800    1.4010055 -0.00030187026     2.263575    4.2246808 -0.0013667349 
   61000    2.0254613 -0.00032422105    1.3883245    4.2236462 0.0033607166 
   61200    1.8378595 -0.00022784139    1.6512224    4.2239979 -0.003591859 
   61400    1.7982599 -0.00037942234    1.7059358    4.2231203  0.005464033 
   61600    1.3106416 -0.00034347999    2.3923742    4.2269289 0.0023638176 
   61800    1.6333355 -0.00026447499    1.9407951    4.2272004 -0.0013869331 
   62000    1.7671545 -0.00031501977    1.7511198    4.2248211 0.0028968717 
   62200    1.5803501 -0.00028650653     2.014003    4.2262066 -0.00097700059 
   62400    1.3021052 -0.00033308698    2.4040644    4.2266786  -0.00184638 
   62600     1.434387 -0.00035946123    2.2178313    4.2256137 -0.00020183085 
   62800    1.5398059 -0.00028252592    2.0696102    4.2250559 0.00032707062 
   63000     1.332675 -0.00025590003    2.3635902    4.2290792 -0.00031849738 
   63200    1.6820825 -0.0003350036    1.8712684    4.2258488 0.0054446625 
   63400    1.2097815 -0.00028225852    2.5352613    4.2286732 -0.00088928365 
   63600    1.3425479 -0.00038390979    2.3481877    4.2273708 0.0012206785 
   63800    1.8169806 -0.00024728559    1.6818958    4.2254213 -0.00038563138 
   64000    1.6565668 -0.00030102881    1.9098102    4.2287027 0.00067111583 
   64200    1.4201494 -0.00030679991    2.2393948    4.2272972 -0.00091156931 
   64400    1.2872998 -0.00037917045    2.4259397    4.2277803 -0.0012775945 
   64600    1.4255724 -0.00029343025    2.2330115    4.2285194 -0.0021372671 
   64800    1.3766172 -0.00027168566    2.3014305    4.2284228 -0.0027880931 
   65000    1.5613793 -0.00030723624    2.0422883    4.2279121 0.0012600362 
   65200    1.4669085 -0.00035640014    2.1745853    4.2279008 0.00068361022 
   65400    1.3213141 -0.00028615461     2.378748    4.2283016 -0.0046813516 
   65600    1.6554262 -0.00036393405    1.9111152    4.2283479 0.0031645303 
   65800     1.730669 -0.0002141905    1.8043054    4.2270279 -0.0029497368 
   66000    1.4019281 -0.00034953134    2.2648229    4.2271728 0.0023875256 
   66200    1.6080937 -0.00029000547    1.9771292    4.2281703 -0.00097865369 
   66400    1.8169402 -0.00031733647    1.6825753    4.2259743 0.00023302453 
   66600    1.8013406 -0.00031235986    1.7061892    4.2277537 0.0034594867 
   66800    1.6755126 -0.00025198713    1.8815941    4.2270597 -0.0019450058 
   67000    1.5674274 -0.00030344503    2.0335348    4.2276296 0.0014272039 
   67200     1.022535 -0.00037097262    2.8016789    4.2328569 -0.0009880263 
   67400    1.8165231 -0.00030178208    1.6851422    4.2279727 0.00083563231 
   67600    1.8002706 -0.00027113383    1.7076633     4.227771 0.00041092787 
   67800    1.5559673 -0.00030188548     2.053657    4.2317093 0.0041327415 
   68000    1.5477595 -0.00028848487    2.0635092    4.2300841  -0.00164261 
   68200    1.3338766 -0.00034919874    2.3639219    4.2309999 -0.00074426125 
   68400    1.7809233 -0.00030838999    1.7362199    4.2292041  0.004743223 
   68600    1.5444799 -0.0002498643    2.0671695    4.2291914 -0.0026833138 
   68800    1.4306955 -0.00029385877    2.2286786    4.2313584  0.003730609 
   69000    1.6586658 -0.00039048944    1.9070833    4.2288249 0.0039672794 
   69200    1.2147403 -0.00025770153    2.5296754    4.2300541 -0.0033396952 
   69400    1.5228129 -0.00031789645    2.0987503    4.2303704 0.0011980745 
   69600    1.7396375 -0.00028152719    1.7938549    4.2290659 0.0014728616 
   69800    1.8424735 -0.00028322597    1.6488862    4.2280659 7.4552494e-05 
   70000    1.1814146 -0.00031705602    2.5780272    4.2316905 -0.0042919732 
   70200    1.3801403 -0.00037545242    2.2975142    4.2293352 0.0056520893 
   70400    1.6775419 -0.0002445211    1.8829553    4.2312695 -0.0020998603 
   70600    1.9006448 -0.00026734339     1.565379    4.2260145 0.0025233687 
   70800    1.5938566 -0.00028862433    1.9990327    4.2301433 0.00030345728 
   71000    1.5224785 -0.00033984315    2.0993997    4.2305298 0.00083783182 
   71200    1.7641065 -0.00033718919    1.7593257    4.2287376 0.00095867198 
   71400    1.1942631 -0.00034007149    2.5628342    4.2344624 -7.8647817e-05 
   71600    1.5613231 -0.00020427062    2.0449466    4.2305947 -0.0051593353 
   71800    1.5275683 -0.00040537873    2.0939384    4.2321286 0.0034038901 
   72000    1.7350218 -0.00032808628    1.8020042    4.2307067 0.0052370714 
   72200    1.2223851 -0.00028643869    2.5223047    4.2333575 -0.001055299 
   72400    1.7756345 -0.00028013869    1.7454278     4.231036 0.0033554976 
   72600    1.4268241 -0.00029214762    2.2340231    4.2312847 -3.2839581e-05 
   72800    1.4959048 -0.00028935283    2.1374452    4.2314226 -0.002954905 
   73000    1.7665962 -0.0003117309    1.7598657    4.2327887 -0.0013626266 
   73200    1.7627822 -0.0003865969    1.7637495     4.231258  0.001967224 
   73400    1.7891855 -0.00021927817    1.7259703    4.2306107 -0.0038633151 
   73600    1.7012223 -0.00034271016     1.851398    4.2327665 0.0038345087 
   73800    1.3396646 -0.00033998704    2.3586555     4.233846 0.0018055671 
   74000    1.7143795 -0.00038280058    1.8302569    4.2300054 0.0017797812 
   74200     1.475718 -0.00027948362    2.1671485    4.2328742 0.00011667992 
   74400    1.7443536 -0.00027989447      1.79179    4.2336051 0.00088542112 
   74600    1.5063498 -0.00032084875    2.1241626    4.2327315 0.0020014396 
   74800     1.724461 -0.00035710909      1.81748    4.2313683 0.00029452402 
   75000    1.6889753 -0.00035438235    1.8680389    4.2322499 -0.00086176084 
   75200    1.7450001 -0.00028427527    1.7900858    4.2328017 -0.0031163542 
   75400     1.957727 -0.00027814022    1.4912907    4.2318303 0.0013006506 
   75600    1.8790083 -0.00032629641    1.6022097     4.232495 0.0015579446 
   75800    1.2005331 -0.00029646888    2.5546626    4.2351124 -0.0022081274 
   76000    1.4744659 -0.00036142771    2.1703864    4.2342773 0.0057502084 
   76200    1.6987618 -0.00026434342    1.8539859     4.231988 -0.0015879845 
   76400    1.4293707 -0.00025332653    2.2354647    4.2363305 -0.0051213974 
   76600    1.7227508 -0.00030480812    1.8212133    4.2327596 -0.00010890683 
   76800    1.3986386 -0.00040987587    2.2765857    4.2342698 0.0050700985 
   77000    1.5736977 -0.00027016312    2.0314102    4.2343168 -0.0026382142 
   77200    1.7685389 -0.00026674499    1.7575781    4.2332659 0.00058870426 
   77400    1.6641047 -0.0003020166    1.9060105    4.2354551 -8.6953585e-05 
   77600    1.6931681 -0.00038677088    1.8634118    4.2334603 0.0008627985 
   77800    1.4164149 -0.00035852238    2.2539421    4.2365645 -0.0018685609 
   78000    1.4297969 -0.00042700493     2.233392    4.2346807 -0.0006260815 
   78200    1.8910008 -0.00020651792    1.5847201    4.2319148 -0.0067210879 
   78400    1.7999159 -0.00037694537    1.7120583    4.2315635 0.0059643597 
   78600    1.6376507 -0.00030424286    1.9429816    4.2353884 -0.001514115 
   78800    1.4005752 -0.00026978248    2.2771327    4.2376682 -0.0013865068 
   79000    1.4869698 -0.00032826461    2.1549168    4.2363463  0.002077548 
   79200    1.4353488 -0.00021716695    2.2292168     4.238488 -0.0021382153 
   79400    1.1621213 -0.00038127162     2.611928    4.2385165 0.00091989339 
   79600    1.4355034 -0.00028252605    2.2280892    4.2375114 -0.0027219298 
   79800     1.624836 -0.00034738028    1.9591341    4.2335571 0.0020312279 
   80000    1.8698469 -0.00023722086    1.6174016    4.2349501 -0.0001461714 
   80200    1.4396595 -0.00030593279    2.2175009    4.2327183 0.0029082753 
   80400    1.1215975 -0.00023827069    2.6695374    4.2395357 -0.0034523293 
   80600    1.4666808 -0.00045817581    2.1818025    4.2346974 0.0062865949 
   80800    1.5722053 -0.00025769952    2.0363078    4.2371376 -0.0029819962 
   81000    1.9372062 -0.00024680217    1.5211253    4.2329671 -0.0014946798 
   81200     1.892329 -0.00028781198    1.5877268    4.2366997 -0.0004801589 
   81400    1.5136616 -0.00033395434    2.1159517     4.234744 -0.0010968662 
   81600    1.5345581 -0.00042509563    2.0867887    4.2347449 0.0033216654 
   81800    1.4110205 -0.00027057019     2.263071    4.2382292 -0.0014693042 
   82000    1.3441173 -0.0002522109    2.3580188    4.2395308 -0.0021233233 
   82200    1.3942967 -0.00035423338    2.2897576    4.2414188 -0.00077233702 
   82400    1.1567265 -0.00037804396    2.6199909      4.23903 -0.002442193 
   82600    1.6065264 -0.0003609465    1.9880889    4.2368649  0.002841952 
   82800     1.549037 -0.00027908528    2.0709265    4.2392993 0.0030272724 
   83000    2.0373997 -0.00024792566    1.3811826    4.2332942 0.00067217172 
   83200    1.7057647 -0.00035112613     1.850983    4.2387024 0.0015387052 
   83400    1.6077564 -0.00030970114    1.9875271    4.2380763 -0.0030779514 
   83600     1.457838 -0.00034004971    2.1969499     4.237583 -0.0020752496 
   83800    1.5634619 -0.00033082239    2.0499544    4.2384703 0.0020183451 
   84000    1.4780567 -0.00021647208    2.1701103    4.2391732 -0.0030865948 
   84200    1.6472087 -0.00037292956    1.9323942    4.2381135  0.003416524 
   84400    1.6755079 -0.00037888334    1.8938521    4.2391843 0.0015314798 
   84600    1.5249342 -0.00032071915    2.1053601    4.2399473 -0.0010389149 
   84800    1.5682088 -0.00026698898    2.0448513    4.2400766 -0.0013473842 
   85000    1.4166677 -0.00031986341    2.2592894    4.2423043 -0.00031274436 
   85200    1.4379032 -0.00031932811    2.2275759     4.240321 -0.00054929167 
   85400    1.4514266 -0.00036030455    2.2099503    4.2415872 0.00016857331 
   85600    1.2540712 -0.0004105195    2.4856612    4.2409504 0.00055327444 
   85800    1.3545834 -0.00025207369    2.3457965    4.2419612 -0.0060036548 
   86000    1.6408108 -0.0002772988    1.9433794    4.2402372 0.00075085762 
   86200    1.5939825 -0.00029647442    2.0081502    4.2394292 -0.0020166532 
   86400    1.6818788 -0.00034910918    1.8867102    4.2409915 0.0032828897 
   86600    1.9779545 -0.00030646714    1.4685101    4.2373398 0.0045056409 
   86800    1.6052228 -0.00028803038    1.9925685    4.2395924 -0.00014309944 
   87000    1.7699262 -0.00025439358    1.7620942    4.2397365 0.0010590598 
   87200    1.9196672 -0.00031886486    1.5523485    4.2395637 0.0013496324 
   87400    1.3259336 -0.00037269982    2.3865766     4.242511 0.0010174879 
   87600    1.5581118 -0.00034076445     2.059189    4.2402047 -0.0023533942 
   87800    1.6405854 -0.00027075529    1.9450208    4.2415696 0.0026158904 
   88000    2.0092142 -0.00028241097    1.4266622    4.2392797 0.00074641582 
   88200    1.8937158 -0.00034373245    1.5876928    4.2385511 0.00093039648 
   88400    1.8011945 -0.00029785994    1.7184017    4.2397761 -0.0023537825 
   88600    1.6055273 -0.00034506457    1.9935081    4.2409012 0.00018202338 
   88800    1.4384513 -0.00026222283    2.2303257    4.2438953  -0.00232489 
   89000    1.6494201 -0.00029521235    1.9324255    4.2413184 9.584922e-06 
   89200    1.7881174 -0.00026782234    1.7368178    4.2399143 0.00092817274 
   89400    1.6208815 -0.00037074009    1.9730407    4.2419041 0.0024344992 
   89600    1.7269516 -0.00033316355    1.8270784    4.2444776 0.0038857859 
   89800    1.4411835 -0.0002436875    2.2284914    4.2459046 -0.0037985253 
   90000    1.8504136 -0.00025292299    1.6489975    4.2393236 -0.002362221 
   90200    1.6414385 -0.00037027224    1.9435973    4.2412409 0.0011328278 
   90400    1.6122505 -0.00033032937    1.9869156     4.243736 0.0025116872 
   90600    1.9131183 -0.00026750748    1.5645437    4.2426417 -0.00015775759 
   90800    1.6936872 -0.00028224014     1.873429    4.2443089 0.00083291053 
   91000    1.5768173 -0.00027076531    2.0382725     4.245546 0.0017762908 
   91200    1.6323128 -0.00030281815    1.9598871    4.2448222 0.0015519653 
   91400    1.6490803 -0.0003193756    1.9348211    4.2432141 -2.4144694e-05 
   91600    1.6367367 -0.00037237352    1.9546486    4.2457075 0.0037946999 
   91800    1.8960455 -0.00020528128    1.5901128    4.2443712 -0.002160741 
   92000    1.8611365 -0.00035266327    1.6399828    4.2452211  0.005873023 
   92200    1.5222412 -0.00028711611    2.1147977    4.2456482 -0.0019515331 
   92400     1.237296 -0.00042731381    2.5144802    4.2462673 0.0047470432 
   92600    1.7028022 -0.00030990436    1.8622468    4.2458599 0.00018628333 
   92800    1.6405562 -0.00026483358    1.9484594    4.2449732 0.0020579674 
   93000    1.6195084 -0.00023677908    1.9802804    4.2473553 -0.0034188708 
   93200     1.473604 -0.00043043427    2.1835349    4.2461501 0.0082818322 
   93400    1.2807141 -0.00031195866    2.4555803     4.248268 -0.0017125643 
   93600    1.8723202 -0.00022922371    1.6240082    4.2450273 -0.0016830278 
   93800    1.9929266 -0.00030824418    1.4525478    4.2423368 0.0012016177 
   94000    1.4743746 -0.00027692643    2.1814223    4.2452699 -0.0052028255 
   94200    1.4024303 -0.00041690624    2.2853394    4.2483249 0.00029321575 
   94400    1.1507378 -0.00032806519    2.6396507    4.2503556 -0.0024852353 
   94600    1.4799252 -0.00028451096    2.1743716    4.2459823 -0.0029509337 
   94800    1.9755957 -0.00025304641    1.4797896    4.2453705 -0.0020140353 
   95000    1.4714495 -0.00041795436    2.1877319    4.2473432 0.0054883947 
   95200    2.0468367 -0.0002936287    1.3757074    4.2409852  -0.00237344 
   95400    1.8710402 -0.00031595935    1.6278661    4.2470064 0.00091280144 
   95600    1.4130608 -0.00024233473    2.2711631     4.249206 0.00094195596 
   95800    1.5137775 -0.00030394946    2.1311667    4.2501513 0.0055192898 
   96000    1.1377968 -0.00027636789    2.6579955    4.2506348 -0.0031646293 
   96200     1.653268 -0.00036637001    1.9341896    4.2483985 0.0020490438 
   96400    1.8756963 -0.00026163634    1.6208002    4.2465133 0.0026404104 
   96600    1.3148427 -0.00025243922    2.4094488    4.2499761 -0.00099769703 
   96800    1.3319214 -0.00027608935     2.386901    4.2513149 -0.0028255151 
   97000     1.683535 -0.00038121898    1.8922616    4.2488294 0.0040971066 
   97200    1.5396627 -0.00030272578    2.0937196    4.2489446 -0.0004747106 
   97400    1.8957359 -0.00027222485    1.5933724    4.2471305 0.0022594257 
   97600     1.398259 -0.00032594362    2.2922887    4.2495254 -0.0010715781 
   97800    1.3245698 -0.00030352887    2.3973084    4.2514025 0.00022960617 
   98000    1.6363425 -0.00035595498    1.9584882    4.2490117 -0.0019701692 
   98200    1.4616099 -0.00031659961    2.2070716    4.2530089 0.00034467137 
   98400    1.2221073 -0.00024153872    2.5434407    4.2541494 -0.0055193438 
   98600    1.7095019 -0.00032166999    1.8560233    4.2490043 0.0025524285 
   98800    1.2594025 -0.00041194373    2.4912171    4.2539686 0.0020117695 
   99000    1.4756249 -0.00031898621    2.1859899    4.2515458 -0.0038716517 
   99200    1.7065372 -0.00032195275    1.8643932    4.2532233 0.0010507821 
   99400    1.4244994 -0.00026920158    2.2575988    4.2516288 -0.0042529105 
   99600    1.3410331 -0.00032929776    2.3749814    4.2520983 -0.0018068693 
   99800    1.2032563 -0.0003578501    2.5686432    4.2528442 -0.0019840476 
  100000    1.2502933 -0.00043757658    2.5035915    4.2535645 0.0057280582 
  100200     1.490194 -0.0002274112    2.1661061    4.2521503 -0.004685006 
  100400    1.7084647 -0.00032666726    1.8617114    4.2532353  0.004101555 
  100600    1.3196635 -0.00025901737    2.4057921    4.2530619 -0.0049011754 
  100800    1.5726729 -0.00043885561    2.0502712    4.2515744 0.0029767624 
  101000     1.701896 -0.00035125221    1.8678817    4.2501848 0.0032332247 
  101200    1.6591632 -0.00024492152    1.9319717    4.2545552 -0.001177801 
  101400    1.8806517 -0.00031310291    1.6197325    4.2523317 0.0037647529 
  101600    1.5942666 -0.00029041712    2.0222852     4.253968 -0.0034296851 
  101800    1.5607644 -0.00046786119    2.0688214    4.2534237 0.0056293765 
  102000    1.7267439 -0.00030377711    1.8370471    4.2541849 0.00077494305 
  102200    1.8206558 -0.00023329385     1.704632    4.2533168 -0.0017851165 
  102400    1.8139202 -0.00037711896    1.7131051    4.2522162 0.0056016394 
  102600    1.3989199 -0.00026999134    2.2959511    4.2541689 -0.0038221915 
  102800    1.6930444 -0.0003298545    1.8822516    4.2521838 -0.00065493199 
  103000    1.8490834 -0.00034262735    1.6652788    4.2536529 0.0045247498 
  103200    1.5068973 -0.00020740072    2.1458249    4.2552737 -0.0039266601 
  103400      1.60895 -0.00034172005    2.0042193    4.2564076 0.0026347603 
  103600    1.6577726 -0.00036162155    1.9343609     4.254881 0.0028644492 
  103800    1.5428736 -0.00026822431    2.0957632     4.255518 -0.00053216284 
  104000    1.7538768 -0.00026766939    1.7997865    4.2549464 -0.0028447808 
  104200    1.5054417 -0.0003443972    2.1492369    4.2565109 0.0041900418 
  104400    1.7382327 -0.00032288336    1.8220185    4.2552213 -0.002155139 
  104600    1.4521741 -0.00023153488    2.2224779    4.2552901 -0.0036781151 
  104800    1.6296974 -0.00035367344    1.9739816    4.2552043 0.0036557973 
  105000     1.627742 -0.00025563676    1.9776916    4.2562747 0.00044446795 
  105200    1.6822676 -0.00030519259    1.8996816     4.254551 -0.0025229222 
  105400    1.8234839 -0.00030034138    1.7007402    4.2533173 0.00049259114 
  105600    1.8016947 -0.0003778336    1.7336753    4.2556701 0.0043462641 
  105800    1.3367209 -0.00021737874    2.3872462     4.258438 -0.0025111034 
  106000    1.4755074 -0.00035389242    2.1918935    4.2572499 0.0031493955 
  106200    1.7433764 -0.00039923055     1.816898    4.2572258 0.0052131014 
  106400    1.8416453 -0.00026469058     1.678245    4.2562837 -0.001324728 
  106600    1.8370671 -0.00026487176    1.6845943    4.2562235 -0.0031060417 
  106800    1.5392913 -0.00029477964    2.1039442    4.2586572 0.00010539499 
  107000    1.5883498 -0.0003999717    2.0323776    4.2556673 3.6178016e-05 
  107200    1.4333123 -0.00023440039    2.2536208    4.2600237 -0.0027534374 
  107400    1.6756775 -0.00050900367    1.9113596    4.2567992 0.0075781348 
  107600    1.5072357 -0.00016429996    2.1487074     4.258673 -0.0085810388 
  107800     1.249178 -0.00053526157     2.510698     4.259012 0.0060237413 
  108000    1.6533178 -0.00029014163    1.9436723     4.258027 -9.0264194e-05 
  108200    1.7496594 -0.00041880545     1.808018    4.2571223 0.0034938127 
  108400    1.3536535 -0.00021862109    2.3662292    4.2611256 -0.003564503 
  108600    1.7228047 -0.00037981888    1.8473806    4.2589273 0.0046457349 
  108800    1.5118123 -0.00029779643    2.1428502    4.2590896 -0.0013356099 
  109000    1.8858424 -0.00034353046    1.6187478    4.2585836 0.0013010147 
  109200    1.5163384 -0.00041513645     2.137023    4.2594817 0.0066353148 
  109400    1.8218179 -0.00021861169    1.7102209    4.2605474 -0.0039012299 
  109600     1.704655 -0.00042487861    1.8745701    4.2606623 0.0041105616 
  109800     1.626462 -0.00029304639    1.9852772    4.2620309 -1.6985174e-05 
  110000    1.6703469 -0.00057772213    1.9221073    4.2600152 0.0066116672 
  110200    1.6908225 -0.00024398246    1.8936489    4.2605564 -0.003857581 
  110400    1.7885345 -0.00040198729    1.7541909    4.2577373 -0.00040008218 
  110600    1.3334537 -0.00030082572    2.3952817    4.2618161 -0.0062791949 
  110800    1.6057116 -0.00044355533    2.0126155    4.2601682 -0.00062440961 
  111000    1.3978019 -0.00033664758    2.3067755    4.2633614 -0.00049209129 
  111200     1.656948 -0.00026542052    1.9394557    4.2589176 -0.00081207094 
  111400    1.7783215 -0.00028432319    1.7727416    4.2621074 0.0036043034 
  111600    1.7968676 -0.00031167668    1.7475603    4.2628632 0.0045550111 
  111800    1.2867143 -0.00024971914    2.4625673    4.2637176 -0.0074863501 
  112000    1.8303417 -0.00036457702    1.7023303    4.2644442 0.0030436702 
  112200    1.2919237 -0.00033129563    2.4582902     4.266652 0.00058126137 
  112400    1.4754659 -0.00022694364    2.1983035    4.2637288 -0.0039658678 
  112600    1.6028523 -0.00035999936    2.0199754    4.2636087 0.0053320008 
  112800    1.8771197 -0.00029118642    1.6360086    4.2636849 0.00059521854 
  113000      1.22129 -0.00034218595    2.5554156    4.2648794 -0.00015086083 
  113200    1.6446413 -0.00021693569     1.961999    4.2642799 -0.0050592171 
  113400    1.5857391 -0.0004660941    2.0411394     4.260708 0.0072753984 
  113600    1.7071958 -0.00022187334    1.8728443    4.2626966 -0.0053366865 
  113800    1.6285627 -0.0003814367    1.9840125    4.2636188 0.0020955205 
  114000    1.8445114 -0.00029358551    1.6836523    4.2656747 -0.001044248 
  114200    1.0666807 -0.00047898699    2.7745064    4.2673803 -0.00024295154 
  114400    1.5166061 -0.00027170949    2.1432792     4.266256 -0.0041654892 
  114600    1.6103274 -0.00037466457     2.009673    4.2637566 0.00093006325 
  114800    1.7478047 -0.00025850363    1.8169177    4.2635858 -0.0012469551 
  115000    1.4717191 -0.00037970858    2.2047818    4.2648089 -0.0016288405 
  115200    1.3486666 -0.00033859341    2.3799418    4.2677365 0.00060911709 
  115400    1.5064409 -0.00028885654    2.1584028    4.2671312 -0.0051104676 
  115600    1.5122865 -0.00036656722    2.1508969    4.2677314 0.0033564537 
  115800    1.6080569 -0.00026675718    2.0159828    4.2669958  -0.00362244 
  116000    1.7878909 -0.00034545549    1.7653207    4.2680225 0.0030305132 
  116200    1.5384717 -0.00031954646    2.1143539    4.2678947 0.0016672228 
  116400    1.4304045 -0.00033937478    2.2645338    4.2667607 -0.0022494936 
  116600    1.6649812 -0.00023614422    1.9344884     4.265226 -0.0029911263 
  116800    1.1850206 -0.00032412534    2.6115298    4.2702345 -0.0025334035 
  117000    1.8088816 -0.00037910058    1.7353907    4.2674458  0.005033482 
  117200    1.6888216 -0.00025005702    1.9045991    4.2686993 -0.0031137408 
  117400    2.0107487 -0.00032048494    1.4533775    4.2681052 0.0023659386 
  117600    1.9576106 -0.00025483968    1.5285636    4.2689636 -0.0010173323 
  117800    1.3758983 -0.00039007295     2.342803    4.2686705 -0.0042023403 
  118000    1.8328346 -0.00027417638    1.7042039    4.2698982 -0.00024347818 
  118200    1.2618459 -0.00040156127    2.5040494     4.270232 0.0044018039 
  118400    1.3989845 -0.00020459432    2.3110301    4.2694038 -0.0031364958 
  118600    1.6600236 -0.00041313499    1.9447485    4.2683683 0.0031774925 
  118800     1.812003 -0.00025146102     1.731456    4.2680087 -0.0020405634 
  119000     1.413865 -0.00033343025    2.2908486    4.2699262 2.2206067e-05 
  119200    1.3286088 -0.0003413439    2.4112985    4.2710095 0.0014549315 
  119400    1.7384939 -0.00022509841    1.8362854    4.2699517 -0.0045840208 
  119600    1.3696468 -0.00039927241    2.3523287     4.269435 -0.00039689604 
  119800    1.5492642 -0.00025293697    2.1037241    4.2724411 -0.0031812697 
  120000    1.2854983 -0.00037295111     2.472734    4.2720586 0.00035890944 
  120200    1.8554516 -0.00028624225    1.6746845    4.2720306 0.0014587198 
  120400    1.2386479 -0.00046383109    2.5381842    4.2718274 0.0025126837 
  120600    1.5225027 -0.00021522061    2.1423187    4.2736073 -0.0042585734 
  120800    1.3348545 -0.00041213018    2.4023575    4.2707417  0.004396946 
  121000     1.831004 -0.00023104664    1.7078088    4.2709833 -0.0036607723 
  121200    1.1050768 -0.00033949593    2.7256318    4.2723999 -0.0012570589 
  121400    1.8553987 -0.00028410974    1.6746025    4.2718766 -0.00054147057 
  121600    1.1064463 -0.00032269853    2.7264546    4.2751567 -0.001989249 
  121800    1.4161518 -0.00027514276    2.2921807     4.274518 -0.0017666994 
  122000    1.1680586 -0.00027588707    2.6401121    4.2751183 -0.0037446825 
  122200    2.1639933 -0.00030546249    1.2417354    4.2710205 0.0055049181 
  122400    1.4286312 -0.00029129697    2.2736576      4.27345 0.0016060879 
  122600    1.7829768 -0.00028482416    1.7776726    4.2735554   0.00435943 
  122800    1.4846798 -0.00025260661    2.1955165    4.2738157  0.001011649 
  123000    1.3524865 -0.00033014974    2.3827252    4.2758762 0.0041442872 
  123200    1.2323268 -0.00024157374    2.5507652    4.2757812 -0.0012811026 
  123400    1.6392991 -0.0003409152    1.9808645    4.2755424 0.0062333528 
  123600    1.8429784 -0.00022437376    1.6932973    4.2732427 -0.00012545239 
  123800    1.8888462 -0.00032935299     1.630236    4.2742913 0.0050680554 
  124000    1.5631751 -0.00026042901    2.0883541    4.2765388 -0.002815132 
  124200    1.9478695 -0.00038889587    1.5453718    4.2720003 0.0024337214 
  124400    1.5759393 -0.00023176033    2.0696848     4.275768 -0.0037036191 
  124600    1.6039326 -0.00036635925    2.0311219    4.2762612 0.0037976137 
  124800    1.6066599 -0.00023529788    2.0261749    4.2752636 -0.0024840761 
  125000    1.2573715 -0.00039164521    2.5177777    4.2777062 0.00016768768 
  125200     1.370984 -0.00028246554    2.3579661    4.2770612 0.00022282919 
  125400    1.5352467 -0.00030033328     2.127723     4.276768 -0.0024398177 
  125600    1.6460265 -0.00026681294    1.9732756    4.2774459 -0.0012144807 
  125800     1.571033 -0.00040722879    2.0790861    4.2781251 0.0023680845 
  126000    1.5917352 -0.00024468887     2.049171    4.2773557 -0.0055548046 
  126200    1.6842316 -0.00037099337    1.9194342    4.2769874 0.0024104082 
  126400    1.6011012 -0.00024122101    2.0366814    4.2779818 -0.0027556098 
  126600    1.6908898 -0.00039493248    1.9121566    4.2790074  0.006358384 
  126800    1.4717517 -0.00024329884    2.2185847    4.2787938 -0.0036969474 
  127000    1.3222538 -0.00034320686    2.4270393    4.2778514 0.0033294139 
  127200    1.6654196 -0.00023571834    1.9475321    4.2788838 -0.00034201935 
  127400     1.534723 -0.00032950582    2.1301565    4.2784392 0.0033427662 
  127600    1.8348425 -0.00029400985    1.7089721    4.2774576 0.0018997103 
  127800    1.6958309 -0.00042078228    1.9047449    4.2784874 0.0061405578 
  128000    1.6323181 -0.00021953832    1.9937078    4.2787336 -0.0075875659 
  128200    1.4333898 -0.00038155793    2.2747321    4.2810963 0.0038322118 
  128400    1.6733394 -0.00021410726    1.9351266    4.2775876 -0.0085877706 
  128600    1.0823256 -0.00048173769    2.7663923    4.2811664 0.0047137051 
  128800    1.3128999 -0.00022380576    2.4430605    4.2808965 -0.0078444702 
  129000     1.525377 -0.00032853167    2.1464907      4.28169 0.0014346449 
  129200    1.3982589 -0.00022989187    2.3237428    4.2810753 -0.0075647784 
  129400    1.4178521 -0.00037427855    2.2980713      4.28269 0.0022815024 
  129600    1.7225004 -0.00030054905     1.871657     4.282857  0.001282652 
  129800    1.3671591 -0.00032440616    2.3690851    4.2827835 0.0036885828 
  130000    1.6050325 -0.00025068831    2.0348727    4.2816675 -0.0031357631 
  130200     1.126933 -0.00036079246    2.7061287    4.2834741  0.003479872 
  130400     1.520573 -0.0002597559    2.1523299    4.2808723 -0.0054458581 
  130600   0.99621911 -0.00036119159    2.8884523    4.2827978 0.0012762314 
  130800    1.5826058 -0.00023896878    2.0662599    4.2816692 -0.0043947408 
  131000    1.3426237 -0.00034488754    2.4047101    4.2840384 0.0018551627 
  131200    1.4976665 -0.00024550955    2.1866907    4.2831783 -0.0036492435 
  131400    1.6423228 -0.0004126076    1.9821716    4.2810109 0.0022504403 
  131600    1.9329898 -0.00024983376    1.5773491     4.283285 0.00051366263 
  131800    1.4951785 -0.00032645133    2.1916792    4.2846027 -0.0014785512 
  132000    1.9206747 -0.00027865902    1.5940131     4.282679 -0.0031234744 
  132200    1.4239157 -0.00041823413    2.2899438    4.2830076 -0.000227711 
  132400    1.0933109 -0.00026217275    2.7552823    4.2856554 -0.0056171707 
  132600    1.4977411 -0.00033850232    2.1883437    4.2848428 -0.002478381 
  132800    1.6249839 -0.00025586764     2.010618    4.2853396 -0.0022422061 
  133000    1.0683765 -0.0004976289    2.7932105      4.28844 0.0025681594 
  133200    1.5382721 -0.00023209187    2.1309324    4.2842812 -0.0046626552 
  133400    1.5405363 -0.00034987144    2.1293075    4.2857083 0.0015112227 
  133600      1.81285 -0.00023388078    1.7484798    4.2862359 4.4631134e-05 
  133800    1.5198442 -0.00042704198    2.1568529    4.2842078  0.005827834 
  134000    1.3475312 -0.00025543057    2.4005915    4.2868798 -0.0028672043 
  134200    1.4444816 -0.00039406331    2.2642657    4.2861459 0.0055624338 
  134400    1.5282476 -0.00022877194    2.1482541    4.2875719 -0.0061989012 
  134600    1.6469007 -0.00037517747    1.9786371    4.2839229 0.0026580577 
  134800    1.5870166 -0.00025969271    2.0642604    4.2858239 -0.0043306178 
  135000    1.3802066 -0.00041110154    2.3531328    4.2850109 0.0060268736 
  135200    1.8308568 -0.0002985839    1.7247114    4.2876123 0.00015255827 
  135400    1.7714234 -0.00029467557    1.8081777    4.2878757 0.0030399441 
  135600    1.6682793 -0.00025290167    1.9531901    4.2885282 -0.0031252478 
  135800    1.6105045 -0.00043422451    2.0337617    4.2880339 0.0054208122 
  136000    1.4788146 -0.00028319687    2.2187955    4.2888527 -0.0027444851 
  136200      1.73055 -0.0003190548    1.8652211     4.287672 -0.0015129041 
  136400    1.5330006 -0.00029087342    2.1446962    4.2906061 0.00079742703 
  136600    1.2570104 -0.00042162812    2.5316612    4.2910542 -0.0018076677 
  136800    1.2375525 -0.00028361223    2.5583719    4.2906619 -0.0070579213 
  137000    1.7598855 -0.00037515561    1.8266637    4.2901282 -0.00072009961 
  137200    1.5834506 -0.00030146452    2.0740723    4.2906016 -0.0025623579 
  137400    1.5865574 -0.00034283262    2.0681696    4.2890071 -0.0015563032 
  137600      1.61935 -0.00030368226    2.0257026    4.2924889 0.0013906583 
  137800      1.37272 -0.00042222482    2.3716267    4.2930125 0.0035597223 
  138000    1.3646943 -0.00039710663    2.3817455    4.2919203 0.0022925251 
  138200    1.3332989 -0.00025851024    2.4256377    4.2919977 -0.0059826197 
  138400    1.7409766 -0.00029728129    1.8542776    4.2913475 0.0010012005 
  138600    1.4190668 -0.00038861866    2.3035608    4.2898657 -0.0014992804 
  138800    1.2754778 -0.00064577283    2.5078541    4.2928773  0.001350224 
  139000     1.569882 -0.0002103629     2.091563    4.2891874 -0.008569911 
  139200    1.8456985 -0.00039827488    1.7087205    4.2923002 0.0053387877 
  139400    1.9662517 -0.00026678283    1.5377454     4.290231 -0.0033948522 
  139600     1.196814 -0.0005672618    2.6186245    4.2935968 -0.0037241316 
  139800    1.7808605 -0.00025760595    1.7979393    4.2908865 -0.0038025621 
  140000    1.2899408 -0.00051299308    2.4905099    4.2959141 0.0039871656 
  140200    1.6364098 -0.00018706691    2.0041463    4.2949329 -0.0076832421 
  140400    1.3315077 -0.00054326918     2.430432    4.2939995  0.001767644 
  140600    1.4727392 -0.00036251646    2.2327738    4.2942461 -0.00055487626 
  140800    1.5754486 -0.00031041187    2.0881106    4.2934282 -0.0038134495 
  141000    2.0462961 -0.00028298135    1.4282315     4.292763 0.0028106306 
  141200     1.464021 -0.00025944115    2.2484249    4.2977948 -0.00030212884 
  141400    1.4767667 -0.00031952515    2.2279824    4.2951362 -0.0012178754 
  141600    1.7785507 -0.00033823527     1.806115    4.2957477 0.0057453601 
  141800    1.4792201 -0.00043450561    2.2252031    4.2956768  0.004167498 
  142000     1.593423 -0.00019314167    2.0637548    4.2943538 -0.0059234954 
  142200    1.4907573 -0.00042746398    2.2086818    4.2953144 0.0017295427 
  142400    1.2656972 -0.00022148614    2.5257438    4.2974984 -0.0049726187 
  142600    1.3216512 -0.00031731888    2.4468757      4.29687 -0.0018120417 
  142800    2.1127821 -0.00026737554    1.3398678    4.2974954 0.0013478168 
  143000    1.5611574 -0.00047988354    2.1130899    4.2982303 0.0049676416 
  143200    1.4028949 -0.00024098458    2.3343766    4.2981885 -0.0070141878 
  143400    1.8203512 -0.00037103479    1.7472163    4.2953369 0.0025476007 
  143600    1.6409474 -0.00022415594    1.9994376    4.2965397 -0.0073036026 
  143800    1.3268942 -0.00040503356    2.4415992     4.298846 0.0053475696 
  144000    1.6020313 -0.00022241715    2.0568478    4.2994692 -0.0042013211 
  144200    1.6559367 -0.00040334138    1.9800633    4.2979713 0.0067251022 
  144400    1.6733628 -0.0002293006    1.9563778    4.2988564 -0.0030644856 
  144600    1.6956868 -0.00035496829    1.9242096    4.2978162  0.003501453 
  144800    1.7966214 -0.00026163528    1.7817294    4.2967377 -0.0044656807 
  145000    1.4405655 -0.00033723486    2.2851736     4.301628 3.0549364e-05 
  145200     1.582662 -0.0002287156    2.0843594    4.2998576 -0.0027969262 
  145400    1.9125524 -0.00033856957    1.6222158    4.2994507 0.0053493157 
  145600    1.5467487 -0.00022103032    2.1368271    4.3020542 -0.00012722787 
  145800    1.2076072 -0.00036405506    2.6123128    4.3025988 0.0048059353 
  146000    1.3744968 -0.00020596758    2.3780542    4.3021438 -0.00083894345 
  146200    1.2781319 -0.00033143266    2.5123243    4.3013776 0.0020961539 
  146400    1.4913829 -0.00022918177    2.2138978    4.3016047 -0.0020920299 
  146600    1.5576449 -0.0003284585    2.1183686     4.298743 -0.0023998196 
  146800     1.716843 -0.00025378438    1.8992033    4.3025298 -0.00051185534 
  147000    1.8039454 -0.00035959137    1.7717986    4.2969626 0.0030455801 
  147200    1.7250871 -0.00021510275    1.8876465    4.3025533 -0.0031033888 
  147400    1.5559156 -0.00038486553     2.124589    4.3024859 0.0025789191 
  147600    1.4081349 -0.0002552119    2.3319052    4.3030388 -0.0055570475 
  147800    1.3345808 -0.00032187345    2.4339765    4.3020678 -0.0020328511 
  148000    2.1042617 -0.00028630506    1.3526273    4.2983073 0.0011581452 
  148200    1.1583907 -0.00036127921    2.6851211    4.3065068 0.0045194681 
  148400   0.99321259 -0.00020016983    2.9159731    4.3062706 -0.007015338 
  148600    1.7723396 -0.00036494431    1.8219949    4.3029054 0.0069303672 
  148800    1.6591544 -0.00026175172     1.982714    4.3052684 -0.0028961817 
  149000    1.4281363 -0.00032414395     2.303682    4.3027488 -0.0042871218 
  149200    1.6437235 -0.00027660601    2.0056551    4.3065914 -0.0013011089 
  149400    2.1162484 -0.00035178955    1.3401781    4.3025741 0.0046713501 
  149600    1.4024974 -0.00022650076    2.3401366    4.3034064 -0.0033735771 
  149800    1.6408905 -0.00036558595    2.0104493    4.3073304 0.0041829407 
  150000     1.579624 -0.00029665496    2.0935317    4.3047086 0.0021920923 
  150200    1.9529225 -0.00022153517    1.5685452    4.3024151 -0.0048497861 
  150400     1.155167 -0.00034721926    2.6915149    4.3084014 0.0034696153 
  150600    1.5313792 -0.00023208253     2.163647    4.3073457 -0.0031724572 
  150800    1.6983322 -0.00035521025    1.9277926    4.3051025 0.0023624362 
  151000    1.6625531 -0.00031252995    1.9797379    4.3069997 0.00090230381 
  151200    1.2107198 -0.00041449691    2.6182761    4.3128693 0.0018360284 
  151400    1.5865159 -0.0001945363    2.0852759    4.3062036 -0.0050978828 
  151600    1.6001677 -0.00045363955    2.0663771    4.3061583 0.0071408837 
  151800    1.5003798 -0.0002061344    2.2088109    4.3091365 -0.0059203014 
  152000     1.085501 -0.00036322275    2.7904541    4.3097923 -0.002696829 
  152200    1.9228888 -0.00027316468    1.6159577    4.3077288 0.00073575337 
  152400    1.4733843 -0.00032604737    2.2465025    4.3089145 0.0003039729 
  152600    1.5666481 -0.00023159305    2.1148913    4.3079671 -0.0033952295 
  152800     1.871146 -0.0003785016    1.6887566    4.3079825 0.0047517534 
  153000    1.9917165 -0.00023736727    1.5175059    4.3056716 -0.0029331494 
  153200    1.7796344 -0.00042253907    1.8171506    4.3082162 0.0054269175 
  153400     1.365814 -0.00035426764    2.4001342    4.3119195 0.0016959486 
  153600    1.4239417 -0.00024413766    2.3174072    4.3106815 -0.0046244331 
  153800    1.6544418 -0.00034512746    1.9897691    4.3056425 0.0024342728 
  154000    1.5595433 -0.00022262787    2.1293622    4.3125001 -0.0042703214 
  154200    1.5335218 -0.00036824967    2.1648319    4.3113941 0.0022264971 
  154400    1.6772477 -0.00022547895    1.9640608    4.3119821 -0.0025015791 
  154600    1.5036646 -0.00041078827    2.2076959    4.3124156 0.0061908739 
  154800    1.8941278 -0.00023114412    1.6595393    4.3110871 -0.0033910323 
  155000    1.2231494 -0.00041909334    2.6035524    4.3155425 0.0032067424 
  155200    1.6538209 -0.00030006561    1.9974972    4.3125464 -0.002651225 
  155400    1.7944913 -0.00034201189    1.7986265    4.3105723 0.0032238731 
  155600    1.6387216 -0.00022014166    2.0189529    4.3129431 -0.0065848423 
  155800    1.3964092 -0.00036451862    2.3608869    4.3154953 0.0077936803 
  156000    1.2619176 -0.00024852522    2.5481934    4.3146295 -0.0071316318 
  156200    1.2828213 -0.0003009087    2.5196628    4.3153116 -0.0023293507 
  156400    1.6487689 -0.00034671765    2.0060909    4.3140206 0.0037560828 
  156600    1.7046474 -0.0002564942    1.9280283    4.3142782 -0.0015257631 
  156800    1.7093399 -0.00027097299    1.9208385    4.3136433 -0.0013400893 
  157000    1.7361021 -0.00034010296    1.8849201    4.3151229 0.0027475846 
  157200    1.4420649 -0.0003900115    2.2978859    4.3163868 0.0013849957 
  157400     1.479874 -0.00020869714    2.2460316    4.3176466 -0.0035542829 
  157600     1.613993 -0.00040575451    2.0579028    4.3170872 0.0049826069 
  157800    1.4602763 -0.0002036344    2.2727547    4.3169379 -0.0047397061 
  158000     1.703868 -0.00038817452    1.9301323    4.3151593 0.0012993312 
  158200    1.4579225 -0.00029356205    2.2770426    4.3178405 8.8501844e-05 
  158400    1.2346262 -0.00034005224    2.5904453     4.318582 0.0019537133 
  158600    1.7912384 -0.00023338279    1.8076685    4.3151688 -0.0015441925 
  158800    1.4842195 -0.0003976136    2.2393946    4.3169042 0.0020431449 
  159000    1.1412624 -0.0002655101    2.7237102     4.321212 -0.0066139875 
  159200     1.548305 -0.00033800932    2.1520691     4.319358 0.0012698448 
  159400    1.4718769 -0.00035652877     2.257642    4.3179132 0.00097308012 
  159600    1.3962659 -0.0002332962    2.3632904    4.3178294 -0.004153188 
  159800    1.3294751 -0.00035296881    2.4575863    4.3184984 0.0010692083 
  160000     1.379322 -0.00028126349     2.387246    4.3180156 -0.0009529793 
  160200    1.1356741 -0.00029007458    2.7305969    4.3202506 -0.004619154 
  160400    1.8677017 -0.00029016232    1.7053634    4.3198556 0.0022247901 
  160600    1.5614733 -0.00031987368    2.1352198    4.3209625 -0.00060383717 
  160800    1.7933826 -0.00033187452    1.8100948    4.3204985  0.001051721 
  161000    1.6855364 -0.00030521748    1.9606486    4.3200944 -0.00032906109 
  161200    1.5613055 -0.00027232305    2.1356939    4.3212493 -0.0027867482 
  161400    1.2045308 -0.00027429293    2.6352504    4.3213192 -0.0030047332 
  161600    1.9608861 -0.00032856914    1.5731402    4.3180522 0.0021866585 
  161800    1.2143617 -0.00022592166     2.623375    4.3232554 -0.0052289864 
  162000      1.81255 -0.00039904195    1.7840666    4.3212375 0.0057466878 
  162200    1.7579907 -0.00024590786    1.8629154    4.3238565 -0.0020154783 
  162400     1.656482 -0.00031446562     2.003008    4.3217684 0.0015441493 
  162600    1.6847398 -0.00037018426     1.963903    4.3221686 0.0035755283 
  162800    1.8223295 -0.00025019029    1.7714925    4.3225036 -0.0021108812 
  163000    1.4502272 -0.00027859914    2.2949205      4.32496 -0.0026827125 
  163200    1.7954074 -0.00029405469    1.8085939    4.3218701 0.0010686485 
  163400    1.4644245 -0.00040537274     2.271497    4.3212859 -0.0010132404 
  163600    1.6303966 -0.00021201874    2.0417216    4.3240649 -0.0043623487 
  163800    1.8218766 -0.00042025165    1.7737837    4.3239907 0.0064173694 
  164000    1.2197302 -0.00021816105    2.6200925    4.3274966 -0.0055634734 
  164200    1.7467425 -0.0003909666    1.8801532    4.3252017 0.0038913552 
  164400    1.6818794 -0.00034194434      1.97157    4.3258592 0.0028846493 
  164600    1.7683456 -0.00028129789    1.8516079    4.3270105 0.00025259861 
  164800    1.5689022 -0.00026249925     2.129763    4.3259637 -0.0038445804 
  165000    1.7816574 -0.00031546065    1.8321119    4.3261168 0.0041969352 
  165200    1.6633945 -0.00040888391    1.9988179    4.3271613 0.0023331602 
  165400    1.6482331 -0.00021983384    2.0191926    4.3264991 -0.0063182648 
  165600    1.7715595 -0.00044241203    1.8432468    4.3229877 0.0059417967 
  165800    1.9143149 -0.0001938717      1.64643    4.3262769 -0.0058957372 
  166000     1.333177 -0.00039414977    2.4625258    4.3285795 0.0021316065 
  166200    1.9527656 -0.00033451326    1.5936761    4.3272134 0.0004782645 
  166400    1.5780321 -0.0002784195     2.116927    4.3258935 -0.0012891451 
  166600    1.7760096 -0.00025471911    1.8424157    4.3285744 -0.0026364041 
  166800    1.8578747 -0.00033119025    1.7285829    4.3292763 0.0035655231 
  167000    1.8272057 -0.0003530383    1.7688183    4.3265532 0.0045977734 
  167200    1.3622085 -0.00023345472    2.4238065    4.3306649 -0.0031339396 
  167400      1.73164 -0.00036443943    1.9058549    4.3297864 0.0053736774 
  167600     1.049068 -0.00023140203    2.8634242     4.331888 -0.0056707411 
  167800    1.5173664 -0.00032238393    2.2060154     4.330006 0.0014227977 
  168000    1.5951692 -0.00030889925    2.0970677    4.3299957 0.0036638945 
  168200    1.8210907 -0.00027108477    1.7799077    4.3291636 -0.0018028746 
  168400    1.7634414 -0.00033460762    1.8625813    4.3310647 0.00044644321 
  168600    1.7557069 -0.00031617529    1.8738183    4.3314918 -0.0016427071 
  168800    1.4569792 -0.00027304106    2.2952465    4.3347444 -0.0020049964 
  169000    1.5040434 -0.00035941587    2.2270286    4.3323299  0.001012434 
  169200     1.692214 -0.00026676525    1.9624692    4.3313019 -2.9469383e-05 
  169400    1.5807515 -0.00030289982    2.1194609    4.3322101 -0.00041658205 
  169600    1.8671716 -0.00031586332    1.7185844    4.3323087 0.0026086545 
  169800    1.2555294 -0.00029231155    2.5775148    4.3349637 -0.0036444543 
  170000    1.3332128 -0.00028471928    2.4691723    4.3353855 -0.0025794038 
  170200    1.4617894 -0.00032351515    2.2892903     4.335472 0.00056014383 
  170400    1.9339757 -0.00025881051    1.6265934    4.3339005 -0.00063995523 
  170600    1.6222916 -0.00038095331    2.0632783    4.3341056 0.0039937687 
  170800    2.0246997 -0.00027983402    1.4986846    4.3329844  0.001458772 
  171000    1.3585405 -0.00028458544    2.4328997    4.3345718 -0.0022838901 
  171200     1.527767 -0.00028116075    2.1960081    4.3346008 -0.0024228661 
  171400    1.4622725 -0.00033594306    2.2863323    4.3331779 7.2304356e-05 
  171600    1.4405477 -0.00024637505    2.3241251    4.3406455 -0.0059236195 
  171800    1.4289703 -0.00036215672    2.3386833    4.3388795 -6.2428393e-05 
  172000    1.7791766 -0.0002544674     1.845392    4.3359848 -0.0018918577 
  172200    1.6955748 -0.00030231496    1.9606373    4.3341397 -0.00010787278 
  172400    1.6857572 -0.00034688494     1.975813    4.3355262 0.0040664331 
  172600    1.2671493 -0.00026147903     2.565349    4.3390966 -0.0031396209 
  172800     1.239584 -0.00031177401    2.6058806    4.3409864 0.0034190215 
  173000    2.0117461 -0.00026960321    1.5187346    4.3349096 -0.00068496438 
  173200    1.3142596 -0.00032414853    2.5028542    4.3424935 -0.0020795049 
  173400    1.6574132 -0.00031757688    2.0198198    4.3398807 -0.0011927415 
  173600    1.7059638 -0.00036141604    1.9489928    4.3369807 0.0014943135 
  173800     1.906816 -0.00024723407    1.6699222    4.3392173 -0.0037701202 
  174000    1.7072002 -0.00033159837    1.9483016    4.3380502 0.0029865051 
  174200    1.7922385 -0.00030324572    1.8289744    4.3378051 0.0041543398 
  174400    1.4158841 -0.00024691839    2.3584647    4.3404555 -0.0034643177 
  174600    1.6463489 -0.00029178376    2.0359972    4.3405939 0.0018812091 
  174800    1.6481432 -0.00033225854    2.0337952    4.3408634 0.0031792704 
  175000    1.5124745 -0.0002709012    2.2245527     4.341746 -0.0028199528 
  175200    1.7120315 -0.00029375622     1.946744    4.3432943  0.001069005 
  175400    1.7427502 -0.00035999329     1.902743    4.3422333 0.0033458301 
  175600    1.6151337 -0.00030638771    2.0818862     4.342767 -0.00016636147 
  175800    1.5526053 -0.00027364042    2.1670136    4.3403875 -0.0028850013 
  176000    1.2670132 -0.00035704993    2.5702697    4.3437311 -0.00025440463 
  176200    1.6026517 -0.00028128907    2.0999311    4.3433622 -0.001178897 
  176400    1.5811515 -0.00027797677    2.1294073    4.3427413 -0.0034910218 
  176600    1.5890142 -0.00036207047    2.1165725    4.3408303 0.0028126518 
  176800    1.6209582 -0.00024685789    2.0737579    4.3428525 -0.0044392346 
  177000    1.5628248 -0.00038972756    2.1567446    4.3443096 0.0037372874 
  177200    1.5562289 -0.00026509807    2.1674362    4.3458916 -0.0014252318 
  177400    1.6647093 -0.00036149679    2.0123754    4.3426069 0.0046180864 
  177600    1.8098682 -0.00029220183    1.8129783    4.3465016  0.002429989 
  177800    1.5008626 -0.00029062835    2.2467151    4.3476322 -0.00038045328 
  178000    1.5481433 -0.00031287822    2.1797206    4.3468083 0.0005817986 
  178200    1.6167382 -0.00029464751    2.0837394    4.3468782 -0.0022310279 
  178400    1.2780388 -0.00031783324    2.5582985    4.3472349 -0.0032807468 
  178600    1.5679638 -0.00023249995    2.1520339    4.3469506 -0.0049094265 
  178800    1.6717185 -0.00046150451    2.0071184    4.3470629   0.01007518 
  179000    1.9206737 -0.00024309807    1.6552399    4.3439399 -0.0022584955 
  179200    1.5013688 -0.00034711948    2.2459607    4.3475299 0.00013544239 
  179400    2.0956547 -0.00024502048    1.4118929    4.3455645 0.00078340886 
  179600    1.6184168 -0.00044230771    2.0842211    4.3495623 0.0053017596 
  179800    1.7211823 -0.00028104154    1.9398707    4.3492448 -0.00044143891 
  180000    1.5740579 -0.00025644913    2.1452376    4.3486622 -0.0033927964 
  180200    1.6174994 -0.00033498793    2.0846537    4.3488178  0.001390396 
  180400    1.6727461 -0.00032320458    2.0131012    4.3546226 0.0029962187 
  180600    1.7622639 -0.00042699508    1.8815347    4.3482772 0.0026882001 
  180800     1.434053 -0.0002245545    2.3429025    4.3503521 -0.0075058725 
  181000    1.6836989 -0.00039330715    1.9915489    4.3483341 0.0045969301 
  181200    1.4412887 -0.00030765833    2.3343517    4.3518483 0.00037333632 
  181400    1.2733063 -0.00030373739    2.5714673    4.3537923 -0.0011912297 
  181600    1.6819599 -0.00030310571    1.9978442    4.3522849 0.00070783715 
  181800    1.9568112 -0.00029149355    1.6112398     4.350484 0.0031374644 
  182000    1.8820987 -0.00039636121     1.711778    4.3463198 0.0028567652 
  182200    1.6447715 -0.00023758946     2.049323    4.3517655 -0.0029980251 
  182400    1.4381515 -0.0003767768    2.3418749    4.3549102 0.00058989119 
  182600    2.0305091 -0.00029788966    1.5121645    4.3545794 0.0023987104 
  182800    1.4924173 -0.00037685833    2.2657738    4.3547811 -0.000110105 
  183000    1.7303585 -0.00024155301    1.9292887     4.351549 -0.0038306371 
  183200    1.5929962 -0.0003549388    2.1208158    4.3506556 0.00092877638 
  183400    1.7179396 -0.00035353051    1.9475509    4.3523128 0.0036202912 
  183600     1.432191 -0.00019331145    2.3506206    4.3554947 -0.0050102399 
  183800    1.7495213 -0.00041507424    1.9045244    4.3534391 0.0064305848 
  184000    1.5140272 -0.00024355633    2.2378521    4.3572467 -0.0026260833 
  184200    1.3243451 -0.00039909924     2.501983    4.3556671 0.00096422604 
  184400    1.6691099 -0.00022085973    2.0200965    4.3566294 -0.0012408231 
  184600    1.7663397 -0.00036569353    1.8825305    4.3550404 0.0040457917 
  184800    1.2570046 -0.00028182029    2.6003465    4.3598712 -0.0013094451 
  185000    1.8747045 -0.00025855593    1.7308999    4.3552277 -0.0037628243 
  185200    1.5766745 -0.00038720143    2.1510323    4.3579894    0.0054678 
  185400    1.8002673 -0.00021926646    1.8374771    4.3576321 -0.0029975106 
  185600    1.3370634 -0.00037617026    2.4869983    4.3585109  0.006452443 
  185800    1.6365091 -0.00025925811    2.0691621    4.3600156 -0.00059693303 
  186000    1.6291491 -0.0004154745    2.0752704    4.3556637 0.0043586552 
  186200    2.0784241 -0.00022203056    1.4480292    4.3576009 -0.0027509843 
  186400    1.6894891 -0.00034990909    1.9931948    4.3581297 0.00079136269 
  186600     1.929902 -0.00025424567    1.6562367    4.3578452 -0.0015806254 
  186800    1.2086439 -0.00037131428    2.6701275    4.3618576 -0.0014149961 
  187000    1.9246455 -0.00032301727    1.6627439    4.3569246 -0.00040159073 
  187200    1.1896258 -0.00026168566    2.6978438    4.3630582 -0.0062626283 
  187400      1.82908 -0.00031799593    1.7988342    4.3592282 -0.0021902179 
  187600    1.1238063 -0.00028330146    2.7907787    4.3638242 -0.0009899832 
  187800    1.6077928 -0.0003132025    2.1108459    4.3614427 -0.0042907627 
  188000    1.8114537 -0.0002389671     1.825633    4.3614292 -0.00040916475 
  188200    1.5615637 -0.00038198264    2.1764865    4.3622936 0.0030348496 
  188400    1.3855863 -0.00022170611    2.4242536    4.3638527 -0.003501517 
  188600    1.3435943 -0.00031967834    2.4836817     4.364394 -0.00098169158 
  188800    1.5211648 -0.00028907985    2.2349931    4.3643348 0.0021435113 
  189000    1.9448883 -0.00029932119    1.6374128    4.3599571 0.0041086366 
  189200    1.2048011 -0.0002245684    2.6818105    4.3683075 -0.0044695077 
  189400   0.99644623 -0.00035729854    2.9740423    4.3687097 0.0012480238 
  189600    1.5678669 -0.00032497579    2.1719884    4.3666771 0.0030961245 
  189800    1.3395562 -0.00023276419    2.4913013    4.3664473 -0.0031676254 
  190000    1.3642296 -0.00029994209    2.4570234    4.3666448 0.0010571597 
  190200    1.5715825 -0.00033647303    2.1652651    4.3651441 0.0016208548 
  190400    1.7503066 -0.00029893733    1.9140406     4.364171 0.00048532245 
  190600    1.5934637 -0.00025700193    2.1370486    4.3676408 -0.005137308 
  190800    1.5691088 -0.00035937485    2.1714357    4.3678286 0.0030414464 
  191000    1.4559035 -0.00028862028    2.3308717    4.3688479 -0.0018921286 
  191200     1.467789 -0.00025557139    2.3135336    4.3681826 -0.0054838723 
  191400    1.3319144 -0.0003087728    2.5052786      4.36965 0.0021973993 
  191600    1.8781994 -0.00030881516    1.7385734    4.3677438 0.0012959557 
  191800    1.4169233 -0.00024954261    2.3867475    4.3701905 -0.0024880433 
  192000    1.7739088 -0.00028846016    1.8829452    4.3661291 0.00038257541 
  192200    1.6508506 -0.00033763458     2.056502    4.3673553 0.0035243431 
  192400    1.4527326 -0.00024603101    2.3425001    4.3760797 -0.0027954778 
  192600    1.5194543 -0.00029384232    2.2390011    4.3659432 -0.0020972416 
  192800    1.9762763 -0.00030566627    1.6001558    4.3666369 0.0032933575 
  193000    1.4640457 -0.00033054945    2.3259172    4.3752506 0.0018715187 
  193200    1.6233164 -0.00023460075    2.0978215    4.3702298 -0.0023327741 
  193400    1.8538562 -0.0003219195    1.7745154    4.3695921 0.0025372663 
  193600    1.7832986 -0.00034112835    1.8737993    4.3700762 0.00030776287 
  193800    1.7201756 -0.00026379695    1.9606808    4.3686629 -0.0027904278 
  194000    1.7397139 -0.00030491638    1.9357589    4.3710535 -0.00095635844 
  194200    1.6654419 -0.00028547774    2.0414183    4.3727515 0.0028294339 
  194400    1.6450973 -0.00028603819    2.0700057    4.3728559 -0.0016096695 
  194600     1.345928 -0.00026826538    2.4918803    4.3759112 -2.085346e-05 
  194800     1.754223 -0.00035560166     1.917484    4.3730406 0.0015917873 
  195000     1.859619 -0.00025070052    1.7689299    4.3721457 -0.0013913569 
  195200    1.5288838 -0.00028502516    2.2354673    4.3756196  0.003059727 
  195400    1.5296685 -0.00029688927    2.2358258    4.3770648 0.0016080674 
  195600    1.9160841 -0.00032838751    1.6881848    4.3703742 0.0038634409 
  195800    2.0098044 -0.00025102665    1.5576991    4.3711741 -0.0041208739 
  196000    1.4616895 -0.00033128406    2.3312147    4.3772488 0.0046169357 
  196200    1.7784626 -0.00026278633    1.8862319    4.3758167 -0.001811275 
  196400    1.6924436 -0.00029232504    2.0055845    4.3747132 0.0023135469 
  196600    1.6510163 -0.00029858404    2.0617155    4.3728397 -0.0027735418 
  196800    1.5970621 -0.00031013658    2.1394249    4.3750016 -0.0018773459 
  197000     1.693397 -0.00023874967    2.0082493    4.3787664 -0.0014806533 
  197200    1.5836218 -0.00029757505    2.1621722    4.3789451 0.0028353278 
  197400    1.3696142 -0.00030872917     2.462509    4.3796601 0.0040786457 
  197600    1.5272997 -0.0002840783    2.2421175     4.380053 -0.00056304789 
  197800    1.3582981 -0.00028416524    2.4802471    4.3815803 -0.0021026665 
  198000    1.4873062 -0.00026189656    2.2986885    4.3806554 -0.0059067651 
  198200    1.6377198 -0.00033503884    2.0875368    4.3800094 2.9157017e-05 
  198400    1.7091898 -0.00027313804     1.986801    4.3793936 -0.0016775655 
  198600    1.6707351 -0.00037080908    2.0404913    4.3791496 0.0020993244 
  198800    1.6737885 -0.00021613407    2.0358329    4.3789206 -0.0047922032 
  199000    1.7449827 -0.00036260594    1.9364112    4.3790244 0.0058496367 
  199200     1.706865 -0.00023741382    1.9907471    4.3801207 -0.003103104 
  199400    1.2445367 -0.0003795635    2.6411881    4.3831598 0.00032819185 
  199600    1.4654315 -0.00026470418    2.3324506      4.38379 -0.00092166733 
  199800    1.8772857 -0.00031569241    1.7538925    4.3817768 0.0021370626 
  200000    1.4686364 -0.00027155742    2.3278981    4.3837175 -0.0026353201 
  200200    1.6927707 -0.00034214736    2.0115135    4.3810504 0.0030506132 
  200400    1.7097951 -0.00029377462    1.9888457    4.3822651 -0.00012044162 
  200600    1.4365657 -0.0002518015    2.3754846    4.3864248 -0.00057600455 
  200800    1.2793991 -0.00029716931    2.5968547    4.3877163 0.00065900515 
  201000    1.7473876 -0.00027173191    1.9344163    4.3804872 -1.0496807e-05 
  201200    1.5474074 -0.00030386836     2.220124    4.3861905 0.00035188211 
  201400    1.4096645 -0.00030098139    2.4125704    4.3857998 0.0035201072 
  201600    1.4077691 -0.00023804144    2.4179888    4.3886275 -0.0033030264 
  201800    1.4937459 -0.00028024383    2.2986124    4.3895764 -0.00044267209 
  202000    1.6810297 -0.00030287983    2.0321036    4.3852423 -0.00019227898 
  202200    1.6718677 -0.00032335828    2.0467553    4.3870467 0.00040169309 
  202400    1.6787816 -0.00027424303     2.038617    4.3886371 -0.00074698488 
  202600    1.9551713 -0.00027410147      1.65032    4.3872857 0.0019876828 
  202800    2.0170388 -0.00029459812    1.5628436    4.3864034 0.0048065247 
  203000    1.3749978 -0.0002880298    2.4644198    4.3891287 0.00021926082 
  203200    1.4170771 -0.00028530843    2.4051551    4.3887777 0.00047621586 
  203400    1.9003016 -0.00029001445     1.728925    4.3890572 0.0021207805 
  203600    1.6949317 -0.00024717503    2.0188256    4.3914828 -0.00099429633 
  203800    1.5215144 -0.00029194237    2.2615617    4.3913899 -0.0021650756 
  204000    1.5759234 -0.00035479424     2.184962    4.3908999 0.0012858859 
  204200    1.8247864 -0.00026103131    1.8336762    4.3881161 -0.0015171268 
  204400    1.7074967 -0.00026710409    2.0011174    4.3913457 -0.0021696351 
  204600    1.7374051 -0.00028304371    1.9568322    4.3889163 0.00091558837 
  204800    1.8038012 -0.00033574015    1.8638228    4.3888087 0.0015890895 
  205000    1.7692135 -0.00026535347    1.9152909    4.3919243 0.0020144964 
  205200    1.8021357 -0.00031986626    1.8683147    4.3909849 0.0037638354 
  205400    1.3120193 -0.00024226484    2.5591455    4.3957303 -0.0036149552 
  205600    1.4708107 -0.00030465809    2.3361266     4.394957 0.0032412867 
  205800    1.5688127 -0.0002739798    2.1978761    4.3939399 -0.0037634824 
  206000    1.7889172 -0.00031139406    1.8856551    4.3898278 0.0033454188 
  206200    1.2351312 -0.00023339991    2.6678629    4.3968133 -0.0027578793 
  206400    2.0130933 -0.00031005951    1.5730317    4.3910522 0.0059302241 
  206600    1.8378503 -0.00025590657    1.8185347    4.3912691 -0.00090529308 
  206800    1.5214834 -0.00033444273    2.2648106     4.394553  0.001051008 
  207000    2.0068932 -0.00027887738    1.5850605    4.3944321 0.0016034252 
  207200    1.7347837 -0.0002982853    1.9688267    4.3972255 -0.0010650736 
  207400     1.573057 -0.00024618776     2.193801    4.3958347 -0.0031360084 
  207600    1.6338774 -0.00034401204    2.1097251    4.3968094 0.0038860943 
  207800    1.7773301 -0.00026510339    1.9072123    4.3952093 -0.00023872755 
  208000    2.0306883 -0.00026295221    1.5539159    4.3966166 -0.0013340156 
  208200     2.138817 -0.00030136496    1.4033726    4.3974149   0.00298007 
  208400    2.0104942 -0.00027718551     1.582371    4.3967857 0.0019108761 
  208600    1.4874073 -0.00025203671    2.3176233    4.3997415 -0.0022386206 
  208800    1.4008535 -0.00029380047      2.43983    4.4007311 0.0053114382 
  209000    1.3796677 -0.00025704295    2.4704754     4.401753 -0.001554676 
  209200    1.3252808 -0.00024196137    2.5463053    4.4014564 -7.2174828e-05 
  209400    1.6426646 -0.00032892944    2.1024707    4.4018721 0.0038409077 
  209600    1.7096058 -0.00028677784    2.0061814    4.3993427 0.0031052412 
  209800    1.4714901 -0.0002602433    2.3424864    4.4023123 -0.0021370362 
  210000     1.731324 -0.00030618373     1.976417    4.3999644 0.0017020297 
  210200    2.1376237 -0.00025957716    1.4052383    4.3976519 0.0020068475 
  210400     1.244525 -0.00029173717    2.6628604    4.4049036 0.00023502378 
  210600    1.5333202 -0.00030992142    2.2611161    4.4074544 0.0046354636 
  210800    1.6126347 -0.00023092136    2.1456009    4.4030585 -0.0042010443 
  211000    1.7817057 -0.00030333968    1.9091843    4.4032689 0.0039649041 
  211200    1.3491974 -0.00027244358    2.5152623    4.4038663 -0.0031540334 
  211400    1.8871848 -0.00033428509     1.762367    4.4040915 0.0053305533 
  211600    1.7658766 -0.00025180439    1.9319228    4.4038983 -0.003626126 
  211800    2.0542454 -0.00030124893    1.5246135    4.4002558 0.0046251078 
  212000    1.4551587 -0.00026897353    2.3692054    4.4061586 -0.0041377588 
  212200     1.741863 -0.00033980289    1.9671222    4.4053906 0.0015647874 
  212400    1.6147055 -0.00028774866    2.1441094    4.4044093 -0.0025166938 
  212600    1.5786247 -0.00032019991    2.1960604    4.4058147 0.00020772276 
  212800    1.8148613 -0.00021868187    1.8650107    4.4055977 -0.0042580372 
  213000    1.3753785 -0.00034575145    2.4832308    4.4084149 0.0022109979 
  213200     1.989942 -0.000273051    1.6198862     4.405532 0.0015031121 
  213400    1.4563496 -0.00029196186    2.3693283    4.4079258 -0.0028523938 
  213600    1.9267242 -0.0002705187    1.7109162    4.4080595  0.001776161 
  213800    1.4950173 -0.00035560722    2.3164455    4.4091141   0.00162347 
  214000    1.2976734 -0.00021566994    2.5931217    4.4096488 -0.0055445073 
  214200    1.4490473 -0.0003628915     2.378715    4.4070184 0.0016041931 
  214400    1.6925613 -0.00022070004    2.0399314    4.4092966 -0.0052124716 
  214600    1.3340582 -0.00031928013    2.5446412    4.4120034 0.0021902323 
  214800    1.8100224 -0.00025965104    1.8750177    4.4087894 0.0012510924 
  215000    1.7015871 -0.00032136237     2.027494    4.4093946 0.0042674409 
  215200    1.8658104 -0.00022553707    1.7971117    4.4090207 -9.1089135e-05 
  215400    1.7388608 -0.00035554179    1.9779536    4.4120032 0.0060563619 
  215600     1.850014 -0.00022721385    1.8227381    4.4125305 -0.0023189803 
  215800    1.4137705 -0.00041314815    2.4346508    4.4135164 0.00047569547 
  216000    1.8746797 -0.00024327358    1.7881135    4.4124219 -0.0025430241 
  216200    1.6696697 -0.00032907963    2.0752914    4.4124999 -0.00080152769 
  216400     1.370975 -0.00022317728    2.4971737    4.4163156 -0.0047004469 
  216600    1.5489201 -0.00036044389    2.2454922    4.4136198 0.0039281318 
  216800    1.8005311 -0.00024061677    1.8930434    4.4135464 0.00061177932 
  217000    1.8637962 -0.00030452652    1.8045379     4.413548 0.0007062709 
  217200    1.4368281 -0.00025022295    2.4048838    4.4161929 -0.0030907975 
  217400    1.6089388 -0.00031773461    2.1617987    4.4139952 0.0013045025 
  217600    1.8836661 -0.00026363209    1.7792921     4.416161 0.0007840521 
  217800    1.6773965 -0.00029808085    2.0671402    4.4151973 0.00020584302 
  218000     1.413597 -0.00028091612    2.4385906    4.4173455 -0.00092490759 
  218200    1.8754529 -0.00030570087    1.7889439    4.4142723 0.0016777961 
  218400     1.850782 -0.00024867591    1.8255052    4.4163513 -0.0016988965 
  218600    1.3019731 -0.00032935981    2.5976909    4.4201239 0.0013560018 
  218800     1.506735 -0.00025786495    2.3093868    4.4185579 -0.0040652141 
  219000    1.8262841 -0.00030909316    1.8612834     4.417772 0.0042743768 
  219200    1.8224369 -0.00029465857    1.8650176    4.4161346  0.002398963 
  219400    1.7038244 -0.00027762682     2.035936    4.4210125 -0.00054492625 
  219600    1.5165604 -0.00027323353    2.2978189    4.4207302 -0.00054439961 
  219800    1.4695057 -0.00031089476    2.3637998    4.4207969 0.0010768525 
  220000    1.7048681 -0.00026277279    2.0331747    4.4197273 -0.001436255 
  220200    1.6526296 -0.0003141671    2.1055077     4.418875 0.00079012925 
  220400    2.0309321 -0.00027933295     1.575764    4.4187897 -0.00071907318 
  220600    1.5135728 -0.00033518176    2.3052778    4.4239446 0.00043277437 
  220800    1.7188717 -0.00029524765     2.016463    4.4225881 0.00040909565 
  221000    1.4694379 -0.00030856472    2.3655788    4.4224834 0.0016634443 
  221200    1.5310363 -0.00028223771    2.2819691    4.4251377 -8.2069456e-05 
  221400   0.95769772 -0.00025987016    3.0874817    4.4279986 -0.007079035 
  221600    1.1014403 -0.00032083325    2.8842066    4.4259021 -0.0031328941 
  221800    1.6131881 -0.00030754038    2.1656589    4.4238147 0.0004441023 
  222000    1.5324123 -0.00026508483    2.2798365    4.4249486 -0.0023322571 
  222200    1.4862891 -0.00035948433    2.3472476    4.4276929 0.0057435548 
  222400    1.5989536 -0.0002745323    2.1882678    4.4265283 -0.0031390834 
  222600    1.5026987 -0.00030890781    2.3231545    4.4266239 0.00058479241 
  222800    1.6605501 -0.0003215276    2.1005886    4.4250371 -0.0034072005 
  223000   0.89927325 -0.00027891435      3.17037    4.4290737 -0.0029093724 
  223200    1.3099879 -0.00026690602    2.5959718     4.429688 -0.0049589509 
  223400    1.8069175 -0.00034519693    1.8987524    4.4280918 0.0044948464 
  223600    1.7299053 -0.00028959921    2.0066712    4.4282491 -0.0025162173 
  223800     2.103915 -0.00029551648    1.4832012    4.4283867  0.001579809 
  224000    1.7314492 -0.00031334866    2.0043847    4.4281002 -0.00037544283 
  224200     1.463742 -0.00030586902    2.3830344    4.4319673   0.00156805 
  224400    1.9154092 -0.00026768221    1.7447103    4.4260155 -6.073864e-05 
  224600    1.4931312 -0.00029116879    2.3419026    4.4319952 0.0015353553 
  224800    1.8382513 -0.00026920004     1.854319    4.4276016 0.00013526492 
  225000    1.5734308 -0.00032591735    2.2297186    4.4321957 0.0003692632 
  225200    1.8758653 -0.00025333879     1.803745     4.429703 -0.0034566834 
  225400    1.5333655 -0.00033862597    2.2861855    4.4325585 0.0024826632 
  225600    1.6249115 -0.00025828603    2.1586002     4.433218  -0.00294314 
  225800    1.6346146 -0.00027659415    2.1457537    4.4339375 0.0011347533 
  226000    1.7076797 -0.00028565642    2.0434488    4.4339148 0.0056549857 
  226200    1.4199197 -0.00028331527    2.4477938     4.435398 0.0016700269 
  226400     1.583096 -0.00028079721    2.2198945    4.4359481 0.0013179428 
  226600    1.7167583 -0.00032085969    2.0310681    4.4342088 0.0023027244 
  226800    1.5419353 -0.0002306336    2.2750173    4.4334961 -0.0016931873 
  227000    1.4032686 -0.00033290606    2.4729902    4.4372334 0.00050522704 
  227200    1.3290384 -0.00025532996    2.5771767    4.4375751 -0.0029274282 
  227400    1.9260372 -0.00036286776    1.7363263    4.4324155 0.0018694748 
  227600    2.0824972 -0.00021774589    1.5190201    4.4342985 -0.0032042507 
  227800    1.5488952 -0.00040283704    2.2666832    4.4347336   0.00367426 
  228000    1.8015288 -0.00020051015    1.9146898    4.4366297 -0.0069341535 
  228200    1.4978256 -0.00038397661    2.3401163    4.4366881  0.001975101 
  228400    1.8829549 -0.00025810594    1.8014357    4.4373144 -0.00037761787 
  228600    1.1746826 -0.00030840141     2.796017    4.4402642 0.00052414235 
  228800    1.6935543 -0.00025617949    2.0674103    4.4381301 -0.002933669 
  229000    1.6938067 -0.00031315893    2.0657906    4.4368068 0.0014882858 
  229200    1.6621682 -0.000255551    2.1123357    4.4391157 -0.0026317928 
  229400    1.3129729 -0.00031406613    2.6043413    4.4421892 0.0026512449 
  229600    1.9023843 -0.00028959257    1.7750479    4.4380962 0.0023943721 
  229800    1.5272263 -0.00027275673    2.3028947    4.4407387 0.00013014423 
  230000    2.2121656 -0.00032078202    1.3427559     4.439467  0.003950696 
  230200    1.9362167 -0.00026760243    1.7304213    4.4408571 1.8954847e-05 
  230400    1.5792956 -0.00032826093    2.2321749    4.4428605 -0.0010455694 
  230600    1.5194752 -0.00027711665    2.3172266    4.4442148 -0.0026229739 
  230800    1.5145209 -0.00037303917    2.3238586    4.4438149 0.0027749874 
  231000    1.8919561 -0.00025679445    1.7921362    4.4406179 -0.0017294846 
  231200    1.8076608 -0.00035977254    1.9128692    4.4432346 0.0029859784 
  231400    1.8837828 -0.00022805654    1.8068547    4.4439226 -0.0026911096 
  231600    2.0560796 -0.00038625898    1.5634057    4.4415309 0.0051162924 
  231800    1.8929315 -0.00022288102     1.794032    4.4439133 -0.0019301504 
  232000    1.7400969 -0.00034690512    2.0084623     4.444251 0.0040974054 
  232200    1.6358694 -0.0002308499    2.1571186    4.4471048 0.00098025299 
  232400    1.1639993 -0.00034129805    2.8171378    4.4463954   0.00538714 
  232600     1.609273 -0.0002152974    2.1944025    4.4471694 -0.0015241664 
  232800    1.5261125 -0.00035040679    2.3116199    4.4478269 0.0072951489 
  233000    1.4634743 -0.00023702752    2.3997196    4.4483467 -0.0009046603 
  233200    1.9631636 -0.00033338321    1.6958352    4.4439308 0.00092480269 
  233400    1.7855888 -0.0003039987    1.9483788    4.4478991 0.0012973398 
  233600    1.7151776 -0.00027186134    2.0478095    4.4487863 -0.0027064059 
  233800    1.7709566 -0.0003007248    1.9691675    4.4482059 0.0014748883 
  234000    1.9600495 -0.00028337243    1.7065335    4.4503194 0.00065997434 
  234200    1.6249576 -0.00032698996     2.176384    4.4509976 -0.0029295082 
  234400    1.6430873 -0.00029397877    2.1518332    4.4518614 -0.0033596009 
  234600    1.4823033 -0.00040259236    2.3772483    4.4520703 0.0011083509 
  234800     1.323038 -0.00020268603    2.6008619    4.4529124 -0.0080418275 
  235000    1.3810263 -0.000443663    2.5206134    4.4536065 0.0044789589 
  235200    1.4942315 -0.00025520971    2.3614838    4.4531527 -0.0057323988 
  235400     1.365919 -0.00035917634    2.5416458    4.4535732 -0.00023438278 
  235600    1.5861454 -0.00031317279    2.2337354    4.4540257 -0.0016478543 
  235800    1.4909273 -0.00027237471    2.3668825    4.4539084 -0.0052360475 
  236000    1.3645417 -0.00033538194    2.5457762    4.4557993 -0.0018394541 
  236200    1.6861192 -0.00025058415    2.0948262    4.4551426 -0.0020272698 
  236400    1.3519353 -0.00040806584    2.5623556    4.4546569 0.0047919632 
  236600    1.6210518 -0.00020295732    2.1867716    4.4560411 -0.0028157376 
  236800    1.8403409 -0.00037085709    1.8768428    4.4529492 0.0062328857 
  237000    1.7546041 -0.00025350128    1.9983998     4.454592 -0.0014671879 
  237200    1.4315132 -0.0003566735    2.4535963    4.4573581 0.0047934363 
  237400    1.7462151 -0.00022575779    2.0116187     4.456094 -0.0031874243 
  237600    1.7467335 -0.0003361609    2.0130224    4.4581131 0.0061209859 
  237800    1.8947998 -0.00020051408    1.8026945    4.4552137 -0.0057366584 
  238000    1.4508871 -0.00037266563    2.4277811    4.4586503 0.0071946094 
  238200    2.1701491 -0.00022110692    1.4195909    4.4575784 -0.0020432221 
  238400    1.3771069 -0.0003499904     2.534555    4.4621548 0.0013776216 
  238600    1.7404799 -0.00025690905    2.0219889    4.4584039 -0.0032095489 
  238800    1.9035304 -0.00037068365    1.7931407    4.4577126  0.001430423 
  239000     1.434248 -0.00026562661    2.4553159    4.4629975 -0.0029778591 
  239200    1.5507699 -0.00032824489    2.2878906    4.4586403 0.00023966827 
  239400    1.9406363 -0.00026132509    1.7440276     4.460657 -0.00050606532 
  239600    1.8856824 -0.00034508352    1.8206481    4.4602583 0.0024078856 
  239800    1.4953045 -0.00023692532    2.3687933    4.4619827 -0.0057246754 
  240000    2.0413765 -0.00032764322    1.6050084    4.4626079 0.0030400163 
  240200    1.6132848 -0.00028185907    2.2047737    4.4630906  0.001085269 
  240400    1.5789716 -0.00029299427     2.254405    4.4646722 0.00037946543 
  240600    1.9890344 -0.00031731311    1.6772881     4.461619 -0.00098745206 
  240800    1.7590931 -0.00025234302    2.0023227    4.4648006 -0.0030374875 
  241000    2.0128734 -0.00032803561    1.6453468    4.4630416 0.0014680147 
  241200    1.5430587 -0.00026860352     2.305173    4.4651866 -0.0028884027 
  241400    1.6781095 -0.00028521472     2.116804    4.4658721 -0.00062617999 
  241600    1.9142163 -0.00027385904    1.7853112    4.4649401 0.0005449694 
  241800    1.7211946 -0.00030739554    2.0566196    4.4659846 0.0023732823 
  242000    1.6298644 -0.00026538856    2.1842135    4.4657582 0.00038242061 
  242200    1.7749046 -0.00032661612    1.9824922    4.4670321 0.0025336828 
  242400    1.2032998 -0.00023826017    2.7865043    4.4708857 -0.0038200043 
  242600    1.5977603 -0.00036335874     2.230521     4.467022 0.0030583242 
  242800    1.5530043 -0.00024176294    2.2967222    4.4706865 -0.0011193832 
  243000     1.499737 -0.00038949225    2.3691963    4.4684386 0.0030584211 
  243200     1.530486 -0.0002303718    2.3291454    4.4715955 -0.0051085057 
  243400    1.6306265 -0.00039181739    2.1874869    4.4699722 0.0027979615 
  243600    1.7646078 -0.00024057161    2.0006382    4.4708485 -0.0033313767 
  243800    1.6328575 -0.000368802    2.1846933    4.4703249 0.0020165763 
  244000    1.6656481 -0.00025533411    2.1389073    4.4705594 -0.0046123865 
  244200     1.425514 -0.00034869296     2.476138    4.4715089 -0.001548076 
  244400    2.0391811 -0.00029990842    1.6150928    4.4696465 -0.0022054371 
  244600    1.5417735 -0.00034945806    2.3144179    4.4725513 -0.00014306447 
  244800    1.4080291 -0.00029473493    2.5040033    4.4749493 -0.0008401941 
  245000    1.8852027 -0.00031603778     1.833067    4.4720349 0.0018541442 
  245200    1.6155529 -0.00028584246    2.2153671    4.4768554 -0.0022981579 
  245400    1.6650648 -0.00034283403    2.1454469    4.4761948 0.0015531243 
  245600    1.6424449 -0.00028176488    2.1762076    4.4753487 -0.00024097103 
  245800    2.1046944 -0.00032036794    1.5274778    4.4737297 0.0032649969 
  246000    1.9931565 -0.00026273673    1.6845253    4.4746817 0.0010004451 
  246200     1.536716 -0.00030252676    2.3260284    4.4771283 0.00081134988 
  246400    1.7699024 -0.00029364828    1.9986304    4.4762001 0.0015426833 
  246600    1.9233555 -0.00031610163    1.7844206    4.4768022  0.001827004 
  246800    1.5558921 -0.00029913587    2.3021933    4.4801431 -5.7870332e-05 
  247000    1.4922974 -0.00031268556    2.3895735    4.4784773 0.00028305888 
  247200    1.8059299 -0.00028872377    1.9507564    4.4787695 0.00072495488 
  247400    1.6386197 -0.00032558729    2.1839042    4.4776462 0.0021699728 
  247600     1.541284 -0.00030238299     2.323174    4.4806692 -0.0011630876 
  247800    1.6267031 -0.00030189274    2.2022801    4.4793625 0.00070474341 
  248000    1.5418868 -0.00031379591    2.3216719    4.4799995 0.00052206103 
  248200    1.6900774 -0.00028792019    2.1154634    4.4812838 -0.00027788408 
  248400    1.5373278 -0.00028505536      2.33088    4.4828538 -0.00016949602 
  248600     1.431933 -0.00033976585    2.4789213    4.4832876 0.00090320179 
  248800     1.801304 -0.0002634115     1.961006    4.4825682 -0.0020020514 
  249000   0.89875779 -0.00034724722    3.2275005    4.4854141 -0.0036121921 
  249200    1.4433104 -0.00027633495    2.4633905    4.4837487 -0.0023391296 
  249400    1.7831475 -0.00032869336    1.9916981     4.487776 0.0029903823 
  249600    1.4182475 -0.00027126081    2.5006763    4.4859516 0.00036709313 
  249800    1.0177766 -0.00035412234    3.0620751    4.4866082 -0.0040349655 
  250000    1.4372951 -0.00035439857    2.4749168    4.4867755 0.0033259478 
  250200    1.7802695 -0.00022766712    1.9918944    4.4840441 -0.0041481725 
  250400    1.7611451 -0.00036966919    2.0190241    4.4842576 0.0029826012 
  250600    1.5673767 -0.00023403109    2.2912581    4.4853514 -0.0041378592 
  250800    1.4590044 -0.00036450081    2.4448377    4.4870794  0.003384621 
  251000    1.8754336 -0.00026791069    1.8629908      4.48833 -0.00030456732 
  251200    1.6283695 -0.00032783582    2.2070985     4.486488 -0.00065667092 
  251400     1.523024 -0.00026109794    2.3554423    4.4874149 -0.0028874722 
  251600    2.0262104 -0.00037367944    1.6505734    4.4868943 0.0010640918 
  251800    1.9491141 -0.00030013142    1.7565404    4.4850001  0.001193828 
  252000    1.5562071 -0.00028408198     2.313688    4.4920939 -0.0034701941 
  252200    1.7912199 -0.00026856376    1.9832918    4.4907311 -0.00029112899 
  252400    1.4384675 -0.00035057956    2.4772719    4.4907758 0.00081452444 
  252600    1.7948893 -0.00023855582    1.9796623    4.4922688 -0.0031976937 
  252800    1.6188194 -0.00033146233    2.2251996    4.4912153 0.0024020959 
  253000    1.5696929 -0.00027713566    2.2958686    4.4931614 -0.0024535519 
  253200    1.5994249 -0.00026694329    2.2520823    4.4910102 -0.0034879549 
  253400    1.5039075 -0.00029239596    2.3847711    4.4899492 -0.0013581787 
  253600    1.4136358 -0.0003236669    2.5164547    4.4952211 0.0033277796 
  253800    1.8106076 -0.00024020787    1.9599824    4.4945928 -0.00012429829 
  254000     1.359435 -0.00034825896      2.59393    4.4967908 0.0020031776 
  254200    1.7698817 -0.00021776208    2.0162119    4.4938286 -0.0039207273 
  254400    1.8432288 -0.00036682462    1.9135557    4.4937092 0.0057647167 
  254600    2.0057999 -0.00024847472     1.686095    4.4939665 0.00087006864 
  254800    1.8471736 -0.00033285938    1.9044344    4.4901446 0.00058531797 
  255000    1.2513593 -0.00026452421    2.7470729    4.4987115 -0.0047143736 
  255200     1.789529 -0.00032952292    1.9894891    4.4945002 0.0026297038 
  255400    2.0055185 -0.00022975094    1.6885232    4.4960192 -0.0006287263 
  255600    1.7690071 -0.00034443704    2.0185842    4.4948497  0.004081472 
  255800    1.4904108 -0.00020343463    2.4136003    4.4999719 -0.0050072208 
  256000    1.4979051 -0.00034249165    2.4029654    4.4996901  0.002339458 
  256200     2.005218 -0.00021929917    1.6895522    4.4966381 -0.0013588667 
  256400     1.535469 -0.00030166373    2.3501373    4.4994923 0.00017077906 
  256600     1.966746 -0.00025735117    1.7453313    4.4985184 -0.0012558017 
  256800    1.8376324 -0.00034891113     1.922882    4.4952184 -0.00015029481 
  257000    1.9254133 -0.00024693487    1.8030874    4.4984191 -0.0009988803 
  257200    1.5534472 -0.00033138296    2.3287311    4.5032259 0.0012979045 
  257400    2.2652262 -0.00027432499    1.3301991    4.5012415   0.00243452 
  257600     1.153991 -0.00032534365    2.8896604    4.5049224 0.00058142023 
  257800    1.8607861 -0.00026903296    1.8967724     4.501604 0.00041042535 
  258000    1.7140589 -0.00030160373    2.1039688    4.5033496 0.00021212808 
  258200    1.3459691 -0.00026620057    2.6213906    4.5054811 -0.0025116554 
  258400    1.5096249 -0.00028459293    2.3906733    4.5038635 -0.001042767 
  258600    1.2653677 -0.00028803228    2.7370465    4.5082732   0.00170926 
  258800    1.5237549 -0.00030790613    2.3739559    4.5069048 0.0010055592 
  259000    1.5173875 -0.00026054399    2.3838626    4.5079446 0.00027639023 
  259200    1.3126566 -0.00028496329    2.6690037     4.506438 -0.0029953783 
  259400    1.5702347 -0.0002599992    2.3040732    4.5021417 -0.0042907236 
  259600    1.6567825 -0.00031805401    2.1854465    4.5046239 -0.0022687181 
  259800    1.4153964 -0.00025287384    2.5278883    4.5091903 -0.0021766034 
  260000     2.054928 -0.00032333435    1.6305895    4.5071654 0.0032152853 
  260200    1.7596657 -0.0002677077    2.0445613    4.5078256 -0.0018276708 
  260400    1.5303784 -0.00033113204    2.3695039    4.5117026 0.00082301033 
  260600    1.6932828 -0.00027029315    2.1380842    4.5084098 -0.0017492336 
  260800    1.2076407 -0.00026192921    2.8226004    4.5130354 -0.0047779491 
  261000    1.5376815 -0.00029555524    2.3574274     4.509886 -0.00032280022 
  261200    1.8137383 -0.00027470675    1.9713333    4.5102923 0.0040076528 
  261400    1.4505143 -0.00026375976    2.4843465    4.5148027 -0.0024732166 
  261600    1.9735518 -0.00029691663    1.7457872    4.5084628 0.0041520407 
  261800    1.7825747 -0.00024332541    2.0151247    4.5104859 -0.0022147182 
  262000    1.7594927 -0.00034069443    2.0489482    4.5118974 0.0033379544 
  262200    1.4536782 -0.00023565157    2.4796945    4.5146083 -0.0033750325 
  262400    1.7025425 -0.00032674486    2.1323812    4.5156139 0.0040318602 
  262600    1.8533493 -0.00022420567    1.9187916    4.5132564 0.00077373591 
  262800    1.6523491 -0.00030981075    2.2017479    4.5147268 0.0006466777 
  263000     1.545739 -0.00028678314    2.3510732    4.5148209 5.851545e-05 
  263200    1.9289326 -0.00026294529    1.8146127    4.5148554 -0.001090549 
  263400    1.6649818 -0.00028683622    2.1858847    4.5165723 0.0027494903 
  263600    1.7343798 -0.00027960209    2.0889585    4.5168106 -0.001737148 
  263800    1.4676142 -0.00033090624    2.4650766    4.5194057 0.0029744532 
  264000    1.7358005 -0.00025928696    2.0865843    4.5164458 -0.0042780194 
  264200    1.7977505 -0.00038184858    2.0004157    4.5168846 0.0033695309 
  264400    1.8285388 -0.00022854119    1.9577706    4.5174964 -0.0047223503 
  264600    1.6828998 -0.00040293141    2.1639049    4.5195617 0.0060491121 
  264800    1.3339315 -0.00024412358    2.6553901    4.5226501 -0.002989294 
  265000    1.8712079 -0.00031413423    1.8983838    4.5177607 0.0034722785 
  265200    1.4754875 -0.00024924231    2.4556747    4.5211079 -0.0025764859 
  265400    1.7236254 -0.00032547638    2.1077404    4.5204904 0.0035055767 
  265600     1.426597 -0.00028679512     2.526172     4.523121 0.0018602066 
  265800    1.9169552 -0.0002835191    1.8390829    4.5225367 0.0031154508 
  266000    1.7980984 -0.00030177504    2.0089349    4.5259709 0.0047432506 
  266200    1.4093876 -0.00027015856    2.5535739    4.5264464 -0.0036640985 
  266400    1.6396439 -0.00031442389    2.2269868    4.5221738 -0.0023408651 
  266600    1.8820056 -0.00027217921    1.8881974    4.5227332 -0.00059456737 
  266800    1.9055721 -0.00029923392    1.8534352    4.5209368 0.0035962411 
  267000    1.8274903 -0.00025680818    1.9666052    4.5248348 -0.0010277448 
  267200     1.116748 -0.00035258199    2.9667734    4.5298679 -0.0031252578 
  267400    1.6538073 -0.00024313489    2.2114108    4.5264979 -0.0036996613 
  267600     1.913821 -0.00033108197    1.8456643    4.5246826 0.0018456337 
  267800    1.7275493 -0.00025240704    2.1085898    4.5269064 -0.001361553 
  268000    1.6700442 -0.00031676564    2.1884904    4.5262354 -0.0015194338 
  268200    1.9380403 -0.00027789774    1.8124501    4.5254286  0.002352855 
  268400    1.4117487 -0.00029090979    2.5538372    4.5299945 -0.0003105137 
  268600    1.4330807 -0.00026294176    2.5246991    4.5307492 0.0011406414 
  268800    1.3674741 -0.00034004235    2.6168543     4.530978 0.00087658222 
  269000    1.2935044 -0.0002012531    2.7212757    4.5319806 -0.0076265929 
  269200    1.5774821 -0.00039624708    2.3233209    4.5313996 0.0064984171 
  269400    1.4726138 -0.00020132826    2.4693691    4.5308271 -0.0057357601 
  269600    1.6505734 -0.00036255188    2.2218701    4.5323103 0.0011975346 
  269800    1.8581395 -0.00033059762    1.9302341    4.5312988 0.0022192144 
  270000    1.6082811 -0.00027434399    2.2794519    4.5307711 -0.0037126228 
  270200    1.4931148 -0.00030495498    2.4436448    4.5337005 0.0012038615 
  270400    1.7939743 -0.0002734056      2.02412    4.5354106 -0.00020837422 
  270600    1.8081348 -0.00028168884    1.9991918    4.5302988 -0.0020666457 
  270800    1.8144302 -0.00032221508    1.9915503    4.5314303 0.00053721834 
  271000     1.619941 -0.00035229371    2.2685725    4.5361376 0.0028313758 
  271200    1.3729423 -0.00022049684    2.6164195    4.5383182 -0.0074985067 
  271400     1.719566 -0.0004195033    2.1264774    4.5334503 0.0071447125 
  271600    1.5780003 -0.00019364072     2.328023    4.5370298 -0.0092903425 
  271800    1.5459065 -0.00042413212    2.3719811    4.5358261 0.0058275592 
  272000    1.7194555 -0.00032250661    2.1320726    4.5389878 0.0012460479 
  272200    1.7635987 -0.00030430962    2.0654789    4.5342128 -0.00055042525 
  272400    2.1444564 -0.00023884488     1.536618    4.5386182 -0.0014466894 
  272600    1.7165616 -0.00039454435     2.133621    4.5364127 0.0055400364 
  272800    1.7529733 -0.0002765406    2.0854147    4.5393008 -0.0020794832 
  273000    1.5876397 -0.00028824143    2.3209262    4.5433335 -0.0017991568 
  273200     1.646162 -0.00039516383    2.2363238    4.5405554 0.0068651193 
  273400    1.6288477 -0.00025680985    2.2610853    4.5412152 -0.003865774 
  273600    2.1863149 -0.00031834199    1.4799334     4.540456 0.0041192064 
  273800     1.531121 -0.00031475649    2.4007205    4.5439751 0.0018436863 
  274000    1.7271763 -0.00040124435    2.1257343    4.5433799 0.0015097454 
  274200    1.6004375 -0.00023780209    2.3041471    4.5445218 -0.0033302405 
  274400    1.5133595 -0.0004685824    2.4251604    4.5433952  0.004754235 
  274600    1.4216816 -0.00019692385    2.5555001    4.5456574 -0.0058009955 
  274800    1.0851306 -0.00038685741     3.029311    4.5481071 0.0039228342 
  275000    1.8536274 -0.00027450792    1.9491337    4.5439376 0.0010342874 
  275200     1.934524 -0.00034782343    1.8354938    4.5434796  0.003195585 
  275400     1.928549 -0.00027338845    1.8433022    4.5429975 -0.00070421509 
  275600    2.1195569 -0.00026824366    1.5779191    4.5450306 0.0022357328 
  275800    1.6561403 -0.00030156204    2.2302654    4.5485603 0.00095632471 
  276000    1.8570934 -0.00034720829    1.9476813    4.5472649 0.0040568887 
  276200    1.8054002 -0.00025080051    2.0206482    4.5479576 -0.001310166 
  276400    2.1692356 -0.00029488064    1.5102798    4.5469147 -0.00091227589 
  276600    1.5601449 -0.00035150098    2.3655679    4.5494192 -0.00015068313 
  276800    1.5891728 -0.00029520037    2.3252159    4.5497626 -0.0063237161 
  277000    1.6312841 -0.00033756882    2.2670599      4.55052 0.0019502146 
  277200    1.2933007 -0.00025385674    2.7419047    4.5522718 -0.0071493499 
  277400    1.6483876 -0.00035881432    2.2440203    4.5514041 0.0017131946 
  277600    1.8851808 -0.00032739013    1.9136549    4.5525806 -0.00093268286 
  277800     1.747767 -0.00030936235    2.1057162    4.5522807 -0.001019961 
  278000    1.9589429 -0.00026278876    1.8101774    4.5524347 -0.00032818188 
  278200    1.7255153 -0.00044630295    2.1383589     4.553634 0.0054935183 
  278400    1.4485021 -0.00023261171    2.5263629    4.5540332 -0.0073008443 
  278600    1.6384676 -0.00040723521     2.260524    4.5539714 8.3369583e-05 
  278800    1.6877453 -0.00027422226    2.1939491    4.5565183 0.0024516159 
  279000    1.6678265 -0.00038588836    2.2182652    4.5528364 -0.00028710579 
  279200    1.6691416 -0.00023531361    2.2196026    4.5561654 -0.0015422599 
  279400    1.2724935 -0.00042501475    2.7761213    4.5571872 0.0029147474 
  279600    1.8779973 -0.00021945651    1.9281656    4.5571424 -0.00076480592 
  279800    1.7106172 -0.00035581853    2.1632043    4.5577125 0.0049368009 
  280000    1.8964731 -0.000243072    1.9026344    4.5574537 -1.8076377e-05 
  280200    1.9297597 -0.00044074502    1.8546934    4.5559162 0.0042845716 
  280400     1.501209 -0.0002835477    2.4591282    4.5605373 -0.0019795203 
  280600    1.3858003 -0.00033950642    2.6175997    4.5573806 -0.0034594567 
  280800    1.4373569 -0.00027449832    2.5503136    4.5623388 -0.0022075901 
  281000      1.64551 -0.00039991273    2.2564028     4.559717 0.0044446758 
  281200    1.5637452 -0.00021163625    2.3712094    4.5602411 -0.0072719194 
  281400    1.3764355 -0.00042460268    2.6385105    4.5650957 0.0073041865 
  281600    1.8225531 -0.00020648162    2.0122031    4.5635709 -0.0038164176 
  281800    1.1459077 -0.00045919816    2.9609709    4.5647825 -0.0015290004 
  282000    1.9705156 -0.00029115179    1.8018614    4.5602921 -0.0013553105 
  282200    1.6131078 -0.00038532995    2.3075518    4.5655174 -4.8626978e-05 
  282400    1.7978112 -0.00021443017    2.0480431    4.5647644 -0.0030640785 
  282600    1.6435262 -0.00039236793     2.263016    4.5635604 0.0042174791 
  282800     1.986306 -0.00025503349    1.7840532    4.5646266 -0.0025700704 
  283000    1.8479169 -0.00034512797    1.9760233    4.5627618 0.0040028279 
  283200    1.8916354 -0.0002894542    1.9175187    4.5655187 -0.00085173689 
  283400    1.6635801 -0.00029893296    2.2336049    4.5623182 0.00092485627 
  283600    1.7878837 -0.00029782069    2.0634982    4.5662375 -0.0039765645 
  283800    1.3373421 -0.00030287043    2.6969051    4.5688811 0.00074543985 
  284000    1.4963412 -0.00036759114    2.4758419     4.570352 -0.0001709483 
  284200    1.8310456 -0.00024291346    2.0054926    4.5687135 -0.0020978542 
  284400    2.0325295 -0.00031966222    1.7236339    4.5688555 0.0033824878 
  284600    1.9531744 -0.000287216    1.8345263    4.5686832 0.00022663053 
  284800    1.9227441 -0.00031200715    1.8791441    4.5706738 0.0021148225 
  285000    1.8478521 -0.00031739149    1.9822469    4.5689224  0.001461553 
  285200    2.0538674 -0.00031904608    1.6942856     4.569381 0.0029950231 
  285400      1.69838 -0.0002648696    2.1948575    4.5723246 -0.0049079539 
  285600    1.6634978 -0.00044916825    2.2403889    4.5688367 0.0028979185 
  285800     1.554228 -0.00022856658    2.3984833    4.5741739 -0.0090062166 
  286000    1.4370636 -0.00042626169    2.5638643    4.5753271 0.0024121881 
  286200    1.7995702 -0.00022587696    2.0523426    4.5715151 -0.006807403 
  286400    1.2947221 -0.00053608725    2.7630511     4.575126  0.002060652 
  286600    2.0880173 -0.00020294097     1.650143    4.5731643 -0.0047312297 
  286800    1.3998741 -0.00048812142     2.618758    4.5780936 0.0049049814 
  287000     1.749064 -0.00020361336    2.1274644    4.5759504 -0.0065765019 
  287200    1.1286906 -0.00046550265    2.9985336     4.578235 0.0041087266 
  287400    1.7908544 -0.0002860573    2.0690846    4.5759946 -0.0016572042 
  287600    1.6092076 -0.00031779183    2.3256822    4.5782551  0.001184691 
  287800    1.9573661 -0.0002227003    1.8398165    4.5799063 -0.0037229603 
  288000    1.7264352 -0.00040911269    2.1602694    4.5768696 0.0041167573 
  288200    1.6265154 -0.00024382119    2.3016044    4.5784822 -0.006109463 
  288400    1.2860771 -0.00032861569    2.7820445    4.5822238 -0.0027228373 
  288600    1.8109926 -0.00038772638    2.0444905    4.5794923 0.0035251003 
  288800    1.8479283 -0.00021778103    1.9935724    4.5804543 -0.0061910415 
  289000    1.9244133 -0.00032787845     1.888588    4.5824387 0.0045327813 
  289200    2.0181332 -0.00023696519    1.7573948    4.5825443 -0.00027840035 
  289400    1.4232732 -0.0003815732    2.5886346    4.5808355 -0.00029512763 
  289600     2.035586 -0.00025161429    1.7329241    4.5824929 -2.7901777e-05 
  289800    1.4764908 -0.00046125577    2.5208838    4.5875098 0.0052825707 
  290000    1.2741397 -0.00016638192    2.8012676    4.5848969 -0.011800633 
  290200    1.3660245 -0.00047569139    2.6744406    4.5863992 0.0059924171 
  290400    1.8192556 -0.00018801475    2.0381687    4.5849385 -0.0087585066 
  290600    1.3792239 -0.00046305752     2.655313    4.5857635   0.00404869 
  290800    2.0428405 -0.00024368948    1.7258953    4.5856284 -0.00093831732 
  291000    1.7710468 -0.00042742232    2.1059043    4.5849423 0.00076413178 
  291200    1.6406372 -0.00021414965    2.2893819    4.5860598 -0.005516488 
  291400    1.3543715 -0.00042022841    2.6918747    4.5875746 1.2307684e-06 
  291600    1.5725819 -0.00019826054    2.3879408    4.5893572 -0.0036374133 
  291800    1.4924464 -0.00040822598    2.4977221    4.5867388 0.0027934856 
  292000    1.9293538 -0.00023973162     1.888643    4.5894986 0.00086798887 
  292200    1.6214528 -0.00032282733    2.3214449    4.5911559 0.0016340719 
  292400    1.9838427 -0.00028739593    1.8141679    4.5912603 0.0010304619 
  292600    2.0204047 -0.00027000792    1.7607702    4.5890668 0.0014197418 
  292800     1.631161 -0.00025760024    2.3094273    4.5927952 -0.004819677 
  293000    1.7346795 -0.0003367866     2.166791    4.5950055 0.0055346325 
  293200     1.474861 -0.0003366466    2.5268855    4.5913542 -0.0015497662 
  293400     1.651475 -0.00020630338    2.2816149    4.5934736 -0.0024089671 
  293600    1.5435348 -0.00044787038    2.4345505    4.5950513 0.0066495293 
  293800    1.6498316 -0.00019013762    2.2848962    4.5944703 -0.0054362493 
  294000     1.680544 -0.00045659254    2.2422968    4.5946019 0.0031406077 
  294200    1.8110474 -0.00028265294    2.0629608    4.5981445 0.00034045724 
  294400    1.1063293 -0.00056396807    3.0521104    4.6004074 0.0051517333 
  294600    1.7775302 -0.00020268308    2.1085935     4.596933 -0.0030345249 
  294800    1.6998713 -0.00043645828    2.2163314    4.5957148 0.0034901123 
  295000    1.4561743 -0.00022059954    2.5606809    4.5991043 -0.0057244329 
  295200    1.7598848 -0.00041513113    2.1311345     4.594558 0.0010354919 
  295400    1.7070791 -0.00034123181    2.2096109    4.5991804 0.0026220305 
  295600    1.7749876 -0.00021107712    2.1137385    4.5985101 -0.0049822187 
  295800    1.7066902 -0.00033742577    2.2091137    4.5981426 0.0036154766 
  296000    1.5769205 -0.00030083577    2.3964139    4.6038019 9.6844943e-05 
  296200    1.2054627 -0.00030926361    2.9155741    4.6029127 -0.0012550251 
  296400    1.6700182 -0.00024256887     2.264209     4.601992 -0.0036683534 
  296600    1.4054041 -0.00042232351    2.6360799    4.6032234 0.0023138683 
  296800    1.7219861 -0.00019486021    2.1913957    4.6019814 -0.0063151937 
  297000    1.6238335 -0.00036735465    2.3316391    4.6046387 0.0027675327 
  297200    1.9745604 -0.00028536914     1.839857    4.6039562 0.0030994882 
  297400    1.9692232 -0.00032728037    1.8470673    4.6036526 0.00085965786 
  297600    1.3589319 -0.00022412129    2.7037226    4.6060031 -0.0064805867 
  297800    1.7617412 -0.00039300404    2.1380262    4.6040709 0.0043600362 
  298000    1.6244202 -0.00025318229    2.3323165    4.6062516 -0.0046707446 
  298200    1.7241329 -0.00031821991    2.1922478    4.6057156 -0.00090728573 
  298400    1.9687055 -0.00031089061    1.8499164    4.6057932 0.00013703349 
  298600    1.6979939 -0.00030912391    2.2316914    4.6085737 0.00052183538 
  298800    1.7518276 -0.00027006906     2.155375    4.6076636 -0.001442053 
  299000    1.3926605 -0.00029969908    2.6621217    4.6115467 0.0013991601 
  299200    1.4766774 -0.0003169601    2.5406855    4.6077169 -0.00059602184 
  299400    1.5781869 -0.0002755781    2.3997307    4.6089167 -0.0036748859 
  299600    1.6514277 -0.00029630319    2.2981978    4.6099003 0.00094874628 
  299800    1.8382696 -0.00023433237    2.0368172    4.6101603 0.00050334795 
  300000    1.8470363 -0.00033607333    2.0250518    4.6105666 0.0041215484 
  300200    2.0758966 -0.00023472962    1.7022326    4.6082531 -0.00067005452 
  300400    1.4250448 -0.00034863326    2.6182127    4.6129268 0.0011744251 
  300600    1.2753412 -0.00021737021    2.8277825    4.6130428 -0.0030162397 
  300800    1.0896833 -0.00033709037    3.0920013    4.6172208  0.001001289 
  301000    2.0228715 -0.00022800328    1.7801476    4.6119397 -0.0016185604 
  301200      2.02883 -0.00034041584    1.7725512    4.6125728 0.0043147205 
  301400    1.8031803 -0.00023294245    2.0918785    4.6160979 -0.0001025578 
  301600    1.8044906 -0.00035436385    2.0904121    4.6163446 0.0033276524 
  301800    1.8027161 -0.00025099379    2.0922518    4.6158034 -0.0033047095 
  302000    1.2129711 -0.0003508971    2.9219578    4.6197664 -0.0024206587 
  302200    1.3486526 -0.00023722144    2.7310279    4.6189044 -0.0073044732 
  302400    2.0753353 -0.00033505934     1.708987    4.6141213 0.0049172899 
  302600    1.6135979 -0.00023126435    2.3627448    4.6215506 -0.0029522502 
  302800    1.6045676 -0.00036025956    2.3746206    4.6206549  0.005036831 
  303000    1.9596037 -0.00026003856    1.8738511    4.6170363 -0.00096191631 
  303200    1.6395027 -0.00029172992    2.3257413    4.6207534 -0.00020148034 
  303400    1.4083624 -0.00026637104    2.6501599    4.6216009 -0.0050186433 
  303600    1.5544939 -0.00035246728    2.4451469    4.6210859 0.0026012262 
  303800    1.1588691 -0.00024583159    3.0025445    4.6247154 -0.003789892 
  304000    1.7390861 -0.00034210758    2.1892237    4.6236022 0.0013120342 
  304200    2.0378284 -0.00024713603    1.7681623    4.6208749 -0.00074616934 
  304400    2.1920305 -0.00032267554    1.5505972    4.6191173 0.0023870211 
  304600    1.3284518 -0.00025383206    2.7670011    4.6265798 -0.0024156712 
  304800    1.0829982 -0.00032477694    3.1096006    4.6254733 -0.001729724 
  305000    1.4908283 -0.00024213119    2.5386147    4.6255322 -0.0014032718 
  305200    1.6255179 -0.00029502995    2.3506937    4.6261238 0.0026329445 
  305400    1.4769562 -0.00029180562    2.5614501    4.6288971 -0.00017069014 
  305600    2.0145052 -0.00030274065    1.8068635    4.6268681 0.0018547427 
  305800    2.0706365 -0.00029091257    1.7270031    4.6256033 0.00072088588 
  306000    1.9076454 -0.00027999714    1.9558522    4.6262758 -0.0015992154 
  306200    1.8825175 -0.00033482697    1.9925096    4.6276993 -0.001253572 
  306400    1.8180516 -0.00032847609    2.0841354    4.6290792 0.00053021537 
  306600    1.3435098 -0.00028636121    2.7499252    4.6305526 -0.0033735521 
  306800    1.6357599 -0.0002824289    2.3407526    4.6305341 0.0016417535 
  307000    1.9770493 -0.00032527332    1.8642741    4.6318179 0.0043118242 
  307200    2.0179485 -0.0002568611    1.8038568    4.6287279 -0.0031714552 
  307400    1.7645694 -0.00030720561    2.1624097    4.6324996 0.0001470851 
  307600    2.1980663 -0.00031149289    1.5539193    4.6309006 0.0023646011 
  307800    1.8790864 -0.00023552269    2.0030501    4.6335355 6.4499733e-05 
  308000    1.6059718 -0.00031514055    2.3870928    4.6351382 0.00011488436 
  308200    1.6267199 -0.00041500197    2.3570428    4.6340356 0.0052285357 
  308400    1.8027845 -0.00025918131    2.1103221    4.6339612 -0.002908489 
  308600    2.1345334 -0.00035003177     1.646657    4.6346538 0.0036146576 
  308800    1.7415722 -0.00025681556    2.1998383    4.6377826 -0.0047070961 
  309000    1.6377739 -0.00035046712    2.3452873    4.6378203 0.00021366815 
  309200    2.3774132 -0.00030376563    1.3082442    4.6363189 0.0040027043 
  309400    1.7171061 -0.00033771691    2.2347849    4.6383958 0.0023384776 
  309600    1.6003727 -0.00022605481    2.3979312    4.6382269 -0.0066056511 
  309800    1.4525935 -0.00034117658    2.6056634    4.6389532 -0.00055596334 
  310000    1.9543843 -0.00034852698    1.9032139    4.6390035 0.00086291487 
  310200    1.3839111 -0.0002333952    2.7043638     4.641606 -0.0020337964 
  310400    2.0334485 -0.00034717211    1.7915184    4.6379992 0.0043637329 
  310600    1.8284275 -0.00027749171    2.0822519     4.641773 0.00045283182 
  310800    1.3038641 -0.00028511084    2.8181573    4.6432818 -0.0045654136 
  311000    1.6929723 -0.00026411158    2.2743824    4.6442795 -0.0011243335 
  311200    1.7296795 -0.00037275848    2.2172327    4.6384113 0.0037797601 
  311400    1.1145214 -0.00019856618    3.0865933    4.6467247 -0.010403281 
  311600    1.8596502 -0.00035595216    2.0403194    4.6434737 0.00097851043 
  311800    1.8543056 -0.00036230486    2.0479167    4.6435823 0.0030041542 
  312000    1.6638045 -0.00028607132    2.3190972    4.6481374 -0.0023301716 
  312200    1.6157083 -0.00024625333    2.3863697     4.648115 -0.0058212074 
  312400    1.8375157 -0.00032502429    2.0743455    4.6465425 0.0044849437 
  312600    1.4782698 -0.00035088145    2.5783926    4.6476195 0.00012515181 
  312800    1.6957428 -0.00026991369    2.2755264    4.6492965 -0.0017762262 
  313000    1.3142637 -0.00041146391    2.8117787    4.6513365 0.0074705747 
  313200    1.5553449 -0.00018572775     2.473026    4.6503232 -0.0085382607 
  313400    1.4150229 -0.0004105309    2.6691111    4.6497327 0.0023341316 
  313600    1.4168299 -0.00026725274     2.667971    4.6512656 -0.0057281408 
  313800    1.9329533 -0.0003356634    1.9404406    4.6462395 0.0021652623 
  314000     1.710139 -0.00025672455    2.2591187    4.6530566 -0.0025018036 
  314200    1.4185798 -0.00033984644     2.666839    4.6525109 -0.0020365443 
  314400    1.6393608 -0.00028612724    2.3584576    4.6532767 -0.00021978832 
  314600    2.1639569 -0.00040737737    1.6214847    4.6506169 0.0047220395 
  314800    1.5785483 -0.00023802892    2.4458703    4.6555999 -0.00047307514 
  315000    1.5817671 -0.00034320856    2.4405274    4.6546582 -1.9692591e-05 
  315200    1.2257196 -0.0002544337    2.9410466    4.6567996 -0.002999753 
  315400    1.9775791 -0.00033783453    1.8848945    4.6531674 0.0016246033 
  315600    1.6418534 -0.00038161228    2.3572325    4.6554457 0.0035062224 
  315800    1.6181531 -0.000256307    2.3905063    4.6556644 -0.005268659 
  316000    1.7504564 -0.00029121858    2.2050553    4.6554031 -0.0017782928 
  316200    1.8854696 -0.00032481685    2.0169424     4.656275 -4.5894937e-05 
  316400    1.5205775 -0.00033703972    2.5288502    4.6573216 -0.0053845838 
  316600    1.8826228 -0.00036318959    2.0212418    4.6565505 0.0038224813 
  316800    1.4761258 -0.00031046552    2.5955923    4.6618579 -0.0017771696 
  317000    2.1197012 -0.00029232916    1.6930548    4.6603442 0.0031722882 
  317200     2.074643 -0.00034011072    1.7541529    4.6583131 0.0043776695 
  317400    1.6675165 -0.0003223675    2.3258687    4.6600695 -0.0026114235 
  317600    1.6634703 -0.00028894664     2.333385    4.6619545 -0.00090672726 
  317800    2.0972665 -0.00033697881    1.7221875    4.6580237 0.00035356198 
  318000    1.6661249 -0.00023342495    2.3295423    4.6618838 -0.001630153 
  318200    1.6696196 -0.00033901825     2.328273    4.6654014 -0.00038217134 
  318400    1.8727627 -0.00035363514    2.0381583    4.6596725 0.0053817365 
  318600    1.5483874 -0.00029517279    2.4982032    4.6656503 -0.0048732446 
  318800    1.8850839 -0.00032157871    2.0277299    4.6665259 0.0053847231 
  319000    1.6347931 -0.00026814889    2.3799326    4.6683748 -0.0044018121 
  319200    1.5964844 -0.00035740963    2.4323351    4.6670559 0.0029583571 
  319400    1.9322441 -0.00029659498    1.9612768    4.6661219 0.00036889127 
  319600     1.793159 -0.00036171331    2.1553591    4.6654199 0.0034298938 
  319800    1.6425905 -0.00023804031    2.3672126    4.6666012 -0.0037714569 
  320000    1.4389729 -0.00031530659    2.6563158    4.6705625 -0.0013365739 
  320200    1.7838685 -0.00023743157    2.1715988    4.6687772 -0.001889925 
  320400    1.4441649 -0.00046276478    2.6512097    4.6725778 0.0060606271 
  320600    1.4713322 -0.00022550895    2.6116837    4.6713233 -0.0016516359 
  320800    1.7625115 -0.00037141813    2.2066811    4.6738258 0.0077958828 
  321000    2.1185491 -0.00022387803    1.7055399    4.6712848 -0.00084928945 
  321200    1.6340252 -0.00033303797    2.3854053    4.6727075 0.00095012416 
  321400    1.6991598 -0.0002914536     2.292735    4.6712672 -0.00025427076 
  321600    1.4461527 -0.00030175614    2.6503854    4.6746973 -0.003436536 
  321800    1.9206196 -0.00026569795    1.9859985    4.6746002 -0.00073099025 
  322000    1.8469262 -0.00040774391    2.0864456    4.6717345 0.0043841592 
  322200    1.4525313 -0.00023040969    2.6452187    4.6785321 -0.0054117023 
  322400    1.7759364 -0.00032857005    2.1890315    4.6750139 0.0047217083 
  322600    1.7529593 -0.00023591683    2.2213004    4.6752075 -0.0019583528 
  322800     1.594586 -0.00031112451    2.4439101    4.6760194 0.0038606619 
  323000    1.3475322 -0.00030177697     2.793099    4.6793423 0.00014769433 
  323200     1.825399 -0.00027711519    2.1211317    4.6764133 -0.0011402333 
  323400    2.0108114 -0.000294336    1.8636396    4.6784812 0.0029673575 
  323600    2.2168409 -0.00030510994     1.574612    4.6778841 0.0040710816 
  323800    1.9772509 -0.00031428594    1.9100197    4.6778566 0.0013596635 
  324000    1.7048381 -0.00033004296    2.2947057     4.681149 0.00059066029 
  324200    1.5491266 -0.00027094228    2.5143068    4.6828131 -0.0024810915 
  324400    1.5008323 -0.00028953826     2.581925    4.6828007 -0.0019396623 
  324600    1.5339818 -0.00028274837    2.5345497    4.6818415 -2.3002675e-05 
  324800    1.9038418 -0.00033359275     2.017759     4.682804 -0.00015399432 
  325000    1.5915691 -0.00027721649    2.4549019    4.6828215 0.00043978732 
  325200    2.0971033 -0.00030335046    1.7468132    4.6824545 -0.00032156558 
  325400    1.6821624 -0.00030086924    2.3299513    4.6846779 2.1318979e-05 
  325600    2.2187014 -0.00025882103    1.5784852    4.6844084 -0.0014114021 
  325800    1.4103573 -0.00044808031    2.7122263    4.6862785 0.0011083853 
  326000    1.5604127 -0.00020482549    2.5030871    4.6874601 -0.006209944 
  326200    2.0206842 -0.00036589695    1.8542008    4.6827927 0.0039103736 
  326400    1.8646699 -0.00022385325     2.075593    4.6859069 -0.0011657204 
  326600    1.6271533 -0.00038317321     2.409502    4.6871335 0.00054766426 
  326800    1.5681795 -0.00024404807    2.4943114    4.6895186 0.00057679993 
  327000    1.5984297 -0.00029088151    2.4525347    4.6900454 0.0013451338 
  327200    1.6262122 -0.00024523808      2.41751    4.6939618 0.0011948611 
  327400    1.7932947 -0.00033210325    2.1804199    4.6907004 0.0039060715 
  327600    1.9646279 -0.0002544207    1.9407785    4.6910031 0.00033783563 
  327800    1.4788563 -0.00032464934    2.6228408     4.692915 0.0018818861 
  328000    1.3727765 -0.00022552139    2.7741078    4.6957694 -0.006223144 
  328200    1.6965333 -0.00031653415    2.3176064    4.6924365 0.0042374399 
  328400    2.1209451 -0.00029367263    1.7229194    4.6919488 -0.0018081462 
  328600    1.9912056 -0.00031687761    1.9027317    4.6901027 0.0023309091 
  328800    1.9454339 -0.00029601573    1.9721925     4.695504 0.0019290794 
  329000    2.2273982 -0.00026747882    1.5743189    4.6924089 0.0019636003 
  329200     1.859511 -0.0002809371    2.0943619    4.6973964 -0.00027748999 
  329400    1.6024559 -0.00035245782    2.4530671    4.6961529 0.0013281385 
  329600    1.7660605 -0.00024215196    2.2249004    4.6971429 -0.00038626793 
  329800    1.7438194 -0.00029153413    2.2590096    4.7000653  0.003649129 
  330000     1.555113 -0.00027604172    2.5219786    4.6988607 0.00058908095 
  330200    1.7218229 -0.00029583233    2.2887387    4.6989948 -0.00028851673 
  330400    1.7435607 -0.00028003042    2.2574715    4.6981765 -0.00075025931 
  330600    2.1198827 -0.00032997111    1.7303034    4.6978092 0.0034275268 
  330800    1.8273312 -0.00023838081    2.1423876     4.700413 -0.0037003686 
  331000    1.7403911 -0.00033364107    2.2658932    4.7021071 0.0041010269 
  331200    1.8607058 -0.00026531963    2.0995727    4.7042955 -0.0021743897 
  331400    1.6218657 -0.0003278879    2.4292296    4.6995137 0.0018070014 
  331600    1.3899149 -0.00027860333     2.760754    4.7063563 -0.0051752104 
  331800     1.490792 -0.00027471577    2.6196663    4.7065003 0.00038121132 
  332000    1.6411591 -0.00028533103    2.4072127    4.7045501 -0.0020804543 
  332200    1.7243789 -0.00034450155     2.291807    4.7055929 7.017963e-05 
  332400    1.6389687 -0.00027381402     2.411033    4.7053154 -0.0039138123 
  332600    1.8406221 -0.00031745916    2.1285704    4.7051239 4.0979363e-05 
  332800    1.3016904 -0.00026566343    2.8890948    4.7111957 -0.0033915135 
  333000    1.6908921 -0.00032963399    2.3410544    4.7079737 7.2396421e-05 
  333200    1.8404047 -0.00027957565    2.1298871    4.7061741 -0.0025844355 
  333400    1.3509448 -0.00031862746    2.8234778    4.7144819 -0.0049931701 
  333600    1.8627291 -0.00027779063    2.1003887    4.7079317 -0.0004195256 
  333800    1.8326113 -0.000325926    2.1442006    4.7095305 0.0019533743 
  334000    1.6333179 -0.00022854693    2.4265635      4.71298 -0.0035720209 
  334200    1.7412875 -0.00039878648    2.2745828    4.7119866 0.0068085066 
  334400    1.7797484 -0.00024554977    2.2193637    4.7107659 -0.0063342759 
  334600    1.6883588 -0.00028184687    2.3480638    4.7114843 -0.0013734335 
  334800    1.4472481 -0.00030307517    2.6879511    4.7137954 -0.0017388333 
  335000    2.0886082 -0.00031840631     1.787732    4.7114651 0.0013805461 
  335200    1.5024302 -0.00029475544    2.6113432    4.7144507 -0.0043385466 
  335400    1.7390302 -0.00030586545    2.2825624    4.7168988 -0.0014361424 
  335600    1.6040508 -0.00026784108    2.4723085    4.7177119 -0.0048002002 
  335800    2.1673364 -0.00034010372    1.6796038    4.7135346 0.0012526043 
  336000    1.4867454 -0.00033756435    2.6374152    4.7185212 -0.0021385789 
  336200    1.7608902 -0.00029671938    2.2509547    4.7159043 -0.0025570542 
  336400    2.1482505 -0.00028916891    1.7069453    4.7142068 0.0022588858 
  336600    2.1902655 -0.00030658127    1.6490661    4.7151313 0.0002409082 
  336800    1.8027616 -0.00029253292    2.1953247    4.7188984 0.00053030568 
  337000    1.3369893 -0.00036093259    2.8522643    4.7236884 0.0036910067 
  337200    1.9662576 -0.00030719719    1.9652668    4.7177203 0.0017888412 
  337400    1.7221805 -0.00027644011    2.3112453    4.7220216 -0.00015645206 
  337600    1.9544377 -0.00028127316    1.9834626    4.7193941  0.001551426 
  337800    1.7431006 -0.00029287995    2.2792912    4.7193391 0.00052537409 
  338000    1.9448782 -0.00035561073    2.0007062      4.72318 0.0037048914 
  338200    1.5180838 -0.00029252199    2.6012547    4.7262795 -0.00094314175 
  338400    1.7367983 -0.00025632783    2.2900337     4.721295 -0.0032947566 
  338600    1.7871979 -0.00035820757    2.2244008    4.7261197 0.0038724089 
  338800    2.0113192 -0.00029435352    1.9106147    4.7261673 0.00087638093 
  339000    1.5771207 -0.00028355604    2.5198332    4.7275186 -0.0040235983 
  339200    1.9883824 -0.00032430778    1.9407035    4.7241146 0.0015097976 
  339400    1.5852298 -0.00028474745    2.5092877    4.7283247 -0.0012466488 
  339600    1.7825191 -0.00025776707    2.2300738    4.7253428 -0.0062309286 
  339800    1.5901037 -0.00038439712    2.5032303    4.7289911 0.0030552482 
  340000    1.4539317 -0.00031505772    2.6984161    4.7336055 -0.00059076801 
  340200    1.7338326 -0.00025323038    2.3030455    4.7301579 -0.0027956966 
  340400     1.911835 -0.00030656794    2.0554062    4.7316685 0.0016208711 
  340600    1.6850693 -0.00039000315    2.3731008    4.7318077 0.0036109906 
  340800    1.3719759 -0.00024881822    2.8117429    4.7322602 -0.007169528 
  341000    1.7095787 -0.00030094045    2.3393229    4.7324322 -0.001572967 
  341200    2.0488051 -0.00029684817     1.863854    4.7318843 0.0048086557 
  341400    1.7559546 -0.00030033036     2.276721    4.7347571 -0.0029821895 
  341600    1.7878009 -0.00028660569    2.2340115    4.7366461 -0.00097335817 
  341800    2.2007816 -0.00041846608    1.6512262     4.731902 0.0075092665 
  342000     2.189323 -0.00022143538    1.6703189    4.7351496 0.00039771756 
  342200    2.0966628 -0.00028216099    1.7989554    4.7340011 0.00099312517 
  342400    1.5953142 -0.0002883645    2.5062916    4.7394432 -0.00036492615 
  342600     1.895865 -0.00030151355    2.0846503    4.7385598 0.0030454795 
  342800    1.6291616 -0.00028881806    2.4586357    4.7391731 0.0020733811 
  343000    2.1508139 -0.00028537747    1.7260613    4.7369154 0.0046967879 
  343200    1.6978726 -0.0002339123    2.3624933     4.739281 -0.0051673044 
  343400    1.8110286 -0.00036856031    2.2009817    4.7360532 0.0035117795 
  343600    1.8550519 -0.00026597939    2.1435105    4.7403171 -0.0014123933 
  343800    2.0106848 -0.00031037234    1.9246243    4.7392727 0.0023340116 
  344000    1.7352466 -0.00025826549    2.3126212    4.7417082 -0.0015309944 
  344200     1.617274 -0.00029137919     2.479163    4.7430553 -0.0021882748 
  344400    1.9159492 -0.00031186665    2.0618283    4.7438453 0.0040618341 
  344600    1.4008753 -0.00031264991    2.7861965    4.7471092 -0.00099893959 
  344800    1.8542086 -0.00022716029    2.1480376    4.7437025 -0.0003308456 
  345000    1.7087224 -0.00032898722    2.3557378    4.7476202 0.0012691788 
  345200    1.9363711 -0.00025675661    2.0334027    4.7440655 -0.00031407468 
  345400    1.5826251 -0.00029176057    2.5311515    4.7465349 -0.0013933366 
  345600    1.8074892 -0.00029972469    2.2180147    4.7481998  0.005243245 
  345800    1.7932859 -0.0002507358    2.2365747    4.7469243 -0.0015709034 
  346000    1.8741546 -0.00026740357    2.1236644    4.7472134 -0.0011500563 
  346200    1.7933909 -0.000310619    2.2360963     4.746533 0.0011835912 
  346400    1.7962763 -0.00029250355    2.2355993    4.7500936 0.0021137727 
  346600    1.6877433 -0.00024601539    2.3903204     4.752915 -0.0024761037 
  346800    1.6659417 -0.00026688887    2.4203879    4.7524394 4.7617248e-06 
  347000    1.9171913 -0.0002757156    2.0660324    4.7498245 0.0024341345 
  347200    2.0536492 -0.00033238831    1.8734936      4.74827 0.0030507472 
  347400    1.2576584 -0.00026790396    2.9950781    4.7555319 -0.0008289737 
  347600    2.2797791 -0.00026285042    1.5574438    4.7488717 0.00087234485 
  347800    1.6405177 -0.00024694876    2.4617956    4.7582735 -0.00044648042 
  348000    1.9534448 -0.00035132008    2.0150675    4.7495389 0.0028755636 
  348200    1.5317631 -0.0002498873    2.6127778    4.7569963 -0.0036673146 
  348400    2.0683607 -0.00032382197    1.8571854    4.7525665 0.0018541217 
  348600    2.0489287 -0.0002241595    1.8879978    4.7562737 -0.0021845988 
  348800     1.956372 -0.00033018673    2.0171416    4.7557321 0.0047180431 
  349000    1.7529328 -0.00029162527    2.3035608    4.7573752 -0.0018010771 
  349200     1.861116 -0.00035124843    2.1512377    4.7564489 0.0017624711 
  349400    1.8938651 -0.00024232354    2.1068738    4.7580426 -0.0033176484 
  349600    1.7324416 -0.00029424634    2.3370618    4.7621858  0.001420441 
  349800     2.263847 -0.0002831939    1.5869012    4.7560038 -0.0013967318 
  350000    2.0998154 -0.0003827768     1.818029    4.7573879 0.0018908495 
  350200    1.8517956 -0.00029215106     2.169049    4.7612706 -0.0022921368 
  350400    2.0239155 -0.00028010677    1.9264395    4.7596411 -0.00084080392 
  350600     1.867717 -0.00027892643    2.1475965    4.7621213 -0.0029470162 
  350800    2.0152117 -0.00029265663    1.9410022    4.7620059 0.0021777761 
  351000    1.8703238 -0.0003562538    2.1456895    4.7637866 0.0060414056 
  351200    2.2182872 -0.0002378712    1.6557581    4.7611223 -0.0013249679 
  351400    1.8656416 -0.00025273645    2.1537256    4.7653712 -0.0023186091 
  351600    1.9405885 -0.00027799066    2.0491409    4.7656869 0.00097106511 
  351800    1.8782245 -0.00039364143    2.1353402    4.7644608 0.0045365459 
  352000      1.77724 -0.00024040837    2.2820193    4.7699149 -0.0015567469 
  352200    2.4266273 -0.00029230132    1.3655617    4.7625475 0.0039352314 
  352400    1.7805423 -0.00023759653     2.278962    4.7714836 -0.00059517943 
  352600    2.0537712 -0.00042341921    1.8891891    4.7640453 0.0062696296 
  352800    2.3473846 -0.00026508212    1.4821787    4.7682521 0.0014010638 
  353000    1.4872332 -0.00030563344    2.6914621    4.7732828 0.0027190919 
  353200    2.1562095 -0.00023428111    1.7507612    4.7692202 0.00021766874 
  353400    1.8534456 -0.00035711237    2.1763572     4.770824 0.0030797055 
  353600    1.6019983 -0.00022801603    2.5325082    4.7750778 -0.0058715428 
  353800    2.0392448 -0.00041726206    1.9175504    4.7720759 0.0095198611 
  354000    2.0988227 -0.00020262945    1.8367208    4.7748699 0.00041100521 
  354200    1.9074617 -0.00035395772    2.1061625     4.776255 0.0035493094 
  354400    2.3743351 -0.00026707888    1.4487718    4.7725738 -0.0010795659 
  354600    1.5896957 -0.00041752183    2.5504482    4.7756046 -0.0018762153 
  354800    1.8603598 -0.00028109782    2.1732273    4.7774499 -0.0021280345 
  355000     2.271461 -0.0002868736    1.5948752    4.7746338 0.0036341542 
  355200    1.8623433 -0.0002201494    2.1700132    4.7770736 -0.0037119191 
  355400    1.8231216 -0.00042331697    2.2240342    4.7759811 0.0085842558 
  355600     1.780549 -0.00025948433    2.2886042    4.7811134 -0.0013890139 
  355800    1.9971939 -0.00026083014     1.983145    4.7789556 0.0034655071 
  356000    1.9890151 -0.00026317546    1.9974632    4.7818211 -0.00050554177 
  356200    1.7769309 -0.00035038682    2.2927674    4.7801203 0.0026581423 
  356400    1.7376977 -0.00032862919     2.351159    4.7836071 -0.00033147494 
  356600    1.9667413 -0.00037201467    2.0263347    4.7794005  0.004064589 
  356800    1.9782983 -0.00021243567    2.0121131    4.7815183 -0.0047771567 
  357000    1.8688957 -0.00042782089    2.1668793    4.7829054 0.0054958197 
  357200    1.5046366 -0.0002910589     2.680803    4.7870031 -0.0051141564 
  357400    1.8147235 -0.00038004773    2.2434255    4.7836583 0.0017236988 
  357600    2.2304984 -0.00027432103    1.6599801    4.7824036 0.0013790948 
  357800    1.7079253 -0.00028508722    2.3941285    4.7849388 0.00032836604 
  358000    1.8030057 -0.00026126186    2.2621981    4.7861448 -0.0023886722 
  358200    1.6571066 -0.00038129253     2.469489     4.789057 0.0041115889 
  358400    2.0105141 -0.00032038501    1.9731744    4.7875737 0.0016670981 
  358600    2.0192643 -0.00025152455    1.9605149    4.7872333 -0.0015537965 
  358800    2.0693961 -0.0003029962    1.8916797    4.7885313 0.0003071226 
  359000    1.9269472 -0.00032246103    2.0904122    4.7878158 0.00051205686 
  359200    1.7455768 -0.00036458216    2.3465486    4.7899916 0.00040886572 
  359400    1.4114669 -0.00030560061    2.8179033    4.7936513 -0.0021703719 
  359600    1.6922365 -0.00026152349    2.4242935    4.7931631 -0.00093411874 
  359800    1.7195913 -0.00029274634    2.3847558    4.7918908 -0.0013065502 
  360000    1.5021917 -0.0004250458    2.6923176     4.794961 -0.00036350811 
  360200    1.7493013 -0.00024710599    2.3452469    4.7940216 -0.006190266 
  360400    2.1377545 -0.00034740059    1.7987652    4.7912742 0.0019200149 
  360600    1.8738279 -0.00027777353    2.1722859    4.7953672 -0.0023394303 
  360800    1.9063211 -0.00039388207    2.1233701    4.7918258 0.0025587249 
  361000    1.5259953 -0.0002632198    2.6601642    4.7962944 -0.0051649406 
  361200    1.6742175 -0.00040160838    2.4567962    4.8002992 0.0033926534 
  361400    1.8404381 -0.00023222939    2.2225128     4.798894 -0.0011949806 
  361600    1.5508298 -0.0003388339     2.629837      4.80066 0.0020530065 
  361800    1.5165998 -0.00027247929    2.6774544    4.8004217 -0.00047975719 
  362000    1.4803595 -0.0004279154    2.7255174    4.7975928 -0.0031446288 
  362200    2.1792364 -0.00026361577    1.7460081    4.7966754 0.0015119315 
  362400    1.6326326 -0.00033320286    2.5186034    4.8039558 -0.0015393617 
  362600    1.8203341 -0.00021415489    2.2548539    4.8031075 -0.0042006755 
  362800    1.7494737 -0.00044756978    2.3541834    4.8029991 0.0070489899 
  363000    1.5486113 -0.00026191095    2.6375328    4.8053267 -0.0014626413 
  363200    1.8910132 -0.00024707529    2.1579043    4.8050757 -0.0013256436 
  363400    1.9671215 -0.00030978525     2.052017    4.8056772 0.00058368027 
  363600    1.5298606 -0.00026690498    2.6646342    4.8061722 -0.0039246664 
  363800    1.6099581 -0.00040147197    2.5537374    4.8072772 0.0012975579 
  364000    1.8182283 -0.00034652477    2.2621352    4.8073083 0.0020340912 
  364200    1.7181027 -0.0001953241    2.4024445     4.807593 -0.0098156763 
  364400    1.8560391 -0.00034356078    2.2074355    4.8055466 0.0012109356 
  364600    1.8305682 -0.00033943032     2.247509    4.8099651 0.00060476569 
  364800    1.7374073 -0.00027999762    2.3768918     4.808982 1.818589e-05 
  365000    1.9464257 -0.00027138585    2.0826766    4.8074013 0.0017301395 
  365200      1.96727 -0.00029782658    2.0554472    4.8093273 0.0035351892 
  365400    1.5845279 -0.00027751153    2.5964854    4.8145471 -0.0026580934 
  365600     1.768002 -0.00033056941     2.338355    4.8132272 0.0028219414 
  365800    1.6842688 -0.00033717472    2.4544002    4.8120394 0.0032128571 
  366000    1.2953602 -0.00023549909    3.0039439    4.8172127 -0.0021435809 
  366200    1.3725042 -0.00031115103    2.8954541    4.8166488 0.0025301421 
  366400    1.6435257 -0.00026046579    2.5122897    4.8129651 -0.0031104427 
  366600    1.5461877 -0.00041051737    2.6509236     4.815176 0.00052420562 
  366800     1.669384 -0.00023522328    2.4780127    4.8149151 -0.0043758204 
  367000    1.5259439 -0.00033189824    2.6830321    4.8190217 0.0017245274 
  367200    1.7295731 -0.00023406595     2.396256    4.8174243 -0.0016891915 
  367400    1.4793147 -0.0003419345    2.7486986    4.8193973 7.0402765e-05 
  367600    2.0539328 -0.00032876167    1.9405881    4.8157652 0.0033445368 
  367800    2.0772132 -0.00026051203    1.9092253    4.8170632 -0.0021364656 
  368000    1.9376024 -0.00025522678    2.1068668    4.8192548 0.00017365465 
  368200      1.87607 -0.00031327398    2.1955775    4.8217622 0.00019690901 
  368400    1.9165109 -0.00033079141    2.1317923    4.8145768 -0.0016209115 
  368600      2.09213 -0.00025021272    1.8904281    4.8191599 -0.0022836314 
  368800    1.8547813 -0.00032978403    2.2264902    4.8228542  0.003016037 
  369000     2.154338 -0.00026147296    1.8049258    4.8207375 0.0017070504 
  369200    1.7800901 -0.00030290017    2.3290732    4.8208965 -0.0022164704 
  369400    1.7516822 -0.00033022082    2.3761603    4.8281852 0.0015871835 
  369600    2.4514159 -0.00026565123    1.3875441    4.8192607 0.0014143863 
  369800    2.4439556 -0.0002338919     1.402584     4.823888 0.0015896867 
  370000    1.9478786 -0.00033155596    2.1000948    4.8267932  0.007661636 
  370200    1.5374591 -0.00023871006    2.6777122    4.8299162 -0.0037697631 
  370400    1.5980024 -0.00031814198    2.5910042    4.8278893 0.0063138445 
  370600    2.0371988 -0.00025573349     1.976464    4.8282867 -0.0017491372 
  370800    1.9564604 -0.00026441573    2.0884843    4.8272644 -0.00028744701 
  371000    2.3516998 -0.00028221025    1.5343071    4.8264045 -0.00031582712 
  371200    1.2144974 -0.00037427371    3.1345976    4.8345198 0.0032987836 
  371400    1.7282099 -0.00017213051    2.4100905    4.8294122 -0.0073314534 
  371600    1.6954995 -0.00042330921    2.4584844    4.8317604 0.0066556551 
  371800    1.6959285 -0.0002304936    2.4581806    4.8322499 -0.004843205 
  372000    1.3317812 -0.00035968256    2.9690639    4.8331979 -0.0017146057 
  372200    2.1656601 -0.00030958372    1.7980884    4.8297029 0.0024487757 
  372400    1.7504626 -0.00027527557    2.3858922    4.8362646 -0.004441531 
  372600    1.4798698 -0.00022812949    2.7658659    4.8374555 -0.0055781173 
  372800    1.6012449 -0.00037797391     2.594254    4.8356188 0.0050029976 
  373000    1.7349765 -0.00030816952    2.4075435    4.8362024 0.0021370415 
  373200     1.430404 -0.00024605173    2.8381044     4.840424 -0.001735102 
  373400    1.5907367 -0.00031637623    2.6122264    4.8389415 -0.001734773 
  373600    1.4999773 -0.00031223028    2.7419349    4.8415909 -0.00010085005 
  373800    1.5249148 -0.00026046033    2.7050565    4.8396767 -0.0048755562 
  374000    1.3823617 -0.00031394123    2.9060775      4.84107 0.0024399506 
  374200    1.6282802 -0.00025386856    2.5618639    4.8412022 -0.001092901 
  374400    1.6364622 -0.00026992905    2.5523751    4.8431522 -0.0030182667 
  374600    1.8176218 -0.00031430588    2.2979061    4.8422623 0.00093940091 
  374800    1.8896786 -0.00034814054    2.1957484    4.8409503 -0.0011056686 
  375000     1.803419 -0.00021495627    2.3186736    4.8432453 -0.0011709747 
  375200    1.8789702 -0.00034707052    2.2139255    4.8441367 0.0052978551 
  375400    1.6985591 -0.00023665942    2.4634613    4.8412074 -0.00068526699 
  375600    1.6746116 -0.00033397329     2.501255    4.8453772 -0.0020766244 
  375800    1.8929411 -0.00029825698    2.1976127     4.847432 0.0016375235 
  376000    1.8885809 -0.00027230602     2.202785    4.8465259 -0.00085420917 
  376200    1.7649753 -0.00024893164    2.3759802    4.8466967 -0.0025239838 
  376400    1.9069979 -0.00035416676    2.1773071    4.8467499 0.0036900472 
  376600    1.4789198 -0.00030060447    2.7839755    4.8541626 -0.0041736334 
  376800    1.9694249 -0.00031121397    2.0907058    4.8475895 0.0025279472 
  377000    1.8698854 -0.00025950581    2.2322974    4.8498774 -0.0032592878 
  377200     1.640809 -0.00029571224    2.5527441    4.8495811 -0.0008868109 
  377400    1.7497384 -0.00030851029     2.399719    4.8490443 -0.0044318306 
  377600    1.7126219 -0.0003027965    2.4573246    4.8546924 -0.00087118816 
  377800    1.7253683 -0.00030816355    2.4380841    4.8532916 -9.2828824e-05 
  378000    1.8117118 -0.00025083646     2.316162    4.8523077 -0.0026383769 
  378200    1.8226245 -0.00030592723    2.3025243    4.8538927 0.00021598983 
  378400    2.1067969 -0.00033725197    1.9018328    4.8510112 -0.00041890818 
  378600    1.8560874 -0.00026243308    2.2560116    4.8542716 -0.0015412436 
  378800    1.9012991 -0.00031515737    2.1941786    4.8556821 0.0024185942 
  379000     2.027292 -0.00024328968    2.0196623    4.8576279 0.0012850483 
  379200    2.1178638 -0.00033860408    1.8919518    4.8566226 0.00071933136 
  379400    1.4592526 -0.00028996748     2.815755    4.8584187 -0.0013433124 
  379600    1.6516334 -0.00029869485    2.5476215    4.8596096 -0.0019526165 
  379800    1.7352635 -0.00026212982    2.4337495    4.8628562 0.00026641258 
  380000    2.1130223 -0.00027330348    1.9028247    4.8607826 0.0015448099 
  380200    1.8566011 -0.00030535328    2.2612789     4.860215 0.00066793444 
  380400    1.7251649 -0.00028541814    2.4458272    4.8607726 -0.00021827496 
  380600    1.9331743 -0.00028221637    2.1563001     4.862462 0.00018370685 
  380800     1.544286 -0.00024903286    2.7050293    4.8667806 0.0014346167 
  381000    1.8641612 -0.00029088038    2.2545787    4.8641135 0.00043988302 
  381200    1.5008005 -0.00027579399    2.7647615    4.8656063 -0.00044318313 
  381400    1.6158174 -0.00032251124    2.6040119    4.8658337 0.0032275463 
  381600    1.8036104 -0.00021471945    2.3411268    4.8659667 -0.0046295775 
  381800    1.8084272 -0.00032908215     2.336453     4.867922 0.0035086428 
  382000    1.5258267 -0.00024571981     2.732323    4.8682347 -0.0047574405 
  382200    1.8769269 -0.00033178438     2.238714    4.8660799 0.0033577643 
  382400    1.7210949 -0.00027810196    2.4586139    4.8678687 -0.0029196665 
  382600    1.5465007 -0.00026546888    2.7010659    4.8659014 -0.00057217239 
  382800    1.6754898 -0.00025534515    2.5230525    4.8684828 -0.0032436181 
  383000    1.9850599 -0.00032609453    2.0899091    4.8686669 6.3061959e-06 
  383200    1.5584783 -0.00029708814    2.6922551    4.8738276 -0.0024794514 
  383400      1.90983 -0.00027275921     2.200582    4.8740712 -0.00074885096 
  383600     1.589176 -0.00023971248    2.6485278    4.8731345 -0.0012526888 
  383800    1.4712085 -0.00029450931    2.8173905    4.8767878 0.0003629946 
  384000    1.6094963 -0.00027681474    2.6227784    4.8757965 0.0013600413 
  384200    1.6676899 -0.00025086002    2.5412636    4.8757787 -0.0025767147 
  384400    2.0181564 -0.00029605491    2.0472789    4.8724017 0.0051310305 
  384600    2.2568676 -0.00021247467    1.7119096    4.8713117 -0.0011043188 
  384800    1.6756234 -0.00031293339    2.5307657    4.8763256 0.0031783049 
  385000    1.9075481 -0.0002895509    2.2064364    4.8767142 0.0017432759 
  385200    1.6747585 -0.00027466182    2.5352406    4.8796278 -0.0010147305 
  385400    2.0488762 -0.00025754636    2.0107308    4.8788999 0.0026043397 
  385600    1.9069391 -0.00026298027     2.209643    4.8790947 0.0013180544 
  385800    2.1164381 -0.00027458569    1.9149873     4.877726 0.0027480594 
  386000     1.640786 -0.00030564996    2.5839602     4.880755 0.0013665822 
  386200    1.2432854 -0.00027748398    3.1439203    4.8842425 0.0010899793 
  386400    2.1619459 -0.00027002841    1.8555921    4.8820464 0.0009887944 
  386600    2.2631471 -0.00027122411    1.7136148    4.8817495  0.001474144 
  386800    1.8998706 -0.00028844926    2.2247125    4.8842429 -0.0024305888 
  387000    1.4855431 -0.00034044416     2.808609    4.8880289 -0.0026142895 
  387200    1.8056038 -0.00026536717    2.3579837    4.8855635 -0.00018036966 
  387400    2.0423815 -0.00029416387     2.025349    4.8843889 0.0018609537 
  387600    2.1275072 -0.00025166076    1.9083805    4.8866389 -0.0014890311 
  387800    1.3101195 -0.00030255482    3.0545632     4.888428 -0.0043185992 
  388000    2.0770742 -0.00029025006    1.9801225    4.8877362 0.0037628362 
  388200    1.7709283 -0.00027959995     2.407434     4.886454 -0.001610379 
  388400    1.8387396 -0.00025189301    2.3138703    4.8878538 -0.00093314432 
  388600     1.578227 -0.00031079327    2.6815722    4.8907792 -0.0011824281 
  388800    1.8759878 -0.00027617948    2.2652333      4.89134 -0.0014026079 
  389000    1.8895964 -0.0003281713    2.2428831    4.8879898 -0.0026576052 
  389200    1.4275827 -0.00025818954    2.8965329    4.8948906 -0.0059008086 
  389400    1.8073896 -0.00027537135    2.3607129    4.8907829 -0.00030418687 
  389600     1.560255 -0.00030842258    2.7111164    4.8951649 -0.00020725158 
  389800    1.3681275 -0.00028054525    2.9790348    4.8941328 -0.0019245527 
  390000    1.9138151 -0.0002850895     2.213759     4.892815 0.00094776709 
  390200    1.4786043 -0.00027360011    2.8276989    4.8974713 -0.0007255921 
  390400    1.4180955 -0.0002428306    2.9118282     4.896919 -0.005090805 
  390600    1.4897188 -0.00031889209     2.814254    4.8995414 0.00032570024 
  390800    1.9222729 -0.00029633504    2.2072153    4.8981011 0.0005678729 
  391000    1.3393928 -0.00029193548    3.0262155    4.9010734 -0.0020054864 
  391200    1.7569295 -0.00028680175     2.437576    4.8969905 -0.00068449786 
  391400    1.8184805 -0.00026647484    2.3529442    4.8985504 0.00019654286 
  391600    1.6981555 -0.00033081554    2.5232032      4.90029 -0.0010261447 
  391800    1.7094655 -0.00030126785    2.5050158    4.8979663 -0.0019587316 
  392000    2.2297062 -0.00023905999    1.7768267    4.8981763 -0.0037372704 
  392200    1.9781866 -0.00030050601    2.1336939    4.9028547 0.0045882319 
  392400    2.2670684 -0.0002823353    1.7293734    4.9029868 0.0043600587 
  392600    1.5081928 -0.00030679487     2.794046    4.9052091 0.00047580655 
  392800     2.086971 -0.00034351554    1.9809499    4.9023658 0.0010839609 
  393000    2.1067407 -0.00028301033    1.9547092    4.9038631 -8.6307256e-05 
  393200    1.6256989 -0.000256749    2.6312158    4.9069375 -0.0034628359 
  393400    1.8977388 -0.00032236922    2.2485158    4.9050277 0.0010975951 
  393600    1.9502294 -0.00026896484    2.1747909    4.9048432 -0.0012483809 
  393800    1.7388785 -0.00030879656    2.4740963    4.9082173 0.0041460978 
  394000    1.6590644 -0.00025912236    2.5867707    4.9092017 -0.0019485535 
  394200    1.8185527 -0.00025218229    2.3644605     4.910182 -0.0017492106 
  394400    2.2406986 -0.0002960975    1.7718132    4.9084951 0.0029672524 
  394600    1.7973305 -0.00034104095     2.393051    4.9089726 0.0021415702 
  394800    2.0420286 -0.00027288984    2.0512915    4.9098586 -0.0016684651 
  395000    2.0211865 -0.00029381622     2.082716    4.9120833 0.0033110459 
  395200    1.8711562 -0.00024230501    2.2922827    4.9116592 -0.0036376436 
  395400    2.0860511 -0.00033149222    1.9936027    4.9137427 0.0055204151 
  395600    2.0581055 -0.00029474356    2.0336194    4.9146724 0.0017593401 
  395800    1.7856009 -0.00026299215    2.4162487    4.9158269 0.00042674095 
  396000     2.032155 -0.00027005313     2.069063    4.9138099 -0.00089331654 
  396200    1.6427706 -0.00028259629    2.6205845    4.9201807 0.00021210334 
  396400    1.7212435 -0.00028374849    2.5083957    4.9178529 -0.0010236888 
  396600    2.0132455 -0.00035990986    2.0967502    4.9149339 0.0041682684 
  396800    1.6982961 -0.00024619539    2.5396862    4.9170546 -0.0027577785 
  397000    2.1030239 -0.00029005979    1.9763187    4.9202621 0.0015605877 
  397200    1.5695927 -0.00030475335    2.7229637    4.9200888 0.00054552764 
  397400    1.5595516 -0.00030022156    2.7386233    4.9216953 -0.0022846965 
  397600    2.0455814 -0.00027148693    2.0548813    4.9184237 0.0018616302 
  397800    1.6886436 -0.00034725095    2.5609854    4.9247393 0.0057693596 
  398000    1.5279577 -0.00020323652    2.7835019    4.9224395 -0.0081412881 
  398200    1.5086172 -0.00033379471    2.8145887    4.9263189 0.0002820022 
  398400    2.1626316 -0.00034346992     1.896199    4.9235398 0.0070486944 
  398600    1.7883654 -0.00029105968    2.4223501    4.9257706 0.0031683752 
  398800     1.796057 -0.00024508194    2.4130344    4.9272691 -0.00057655604 
  399000    2.1940511 -0.00032973044    1.8540021     4.925344 0.0029336753 
  399200    1.6481242 -0.00025292028    2.6206407    4.9277617 -0.0060920136 
  399400    2.1287082 -0.00032566482    1.9459647    4.9258306 0.00061341898 
  399600    1.7545077 -0.00037220829    2.4736265    4.9295651 0.0043756425 
  399800    1.8144107 -0.0002109533     2.388221     4.928185 -0.0033922453 
  400000    1.5388126 -0.0003175426    2.7765183    4.9305383 -0.0023735486 
  400200    2.2031368 -0.0003229118    1.8439556    4.9280243 0.0021090799 
  400400    1.9378077 -0.00033403172     2.218259    4.9308558 0.0024417484 
  400600    1.8021377 -0.00019616231    2.4091792    4.9319758 -0.0065088566 
  400800    2.0830051 -0.00039643915    2.0136072    4.9294179 0.0076441169 
  401000    1.7779988 -0.00027079601    2.4449429    4.9338705 -0.0021321777 
  401200    1.9029774 -0.00031006898    2.2704861    4.9343444 -0.00074349588 
  401400    1.6971019 -0.00029078061    2.5615852    4.9372371 0.0020770132 
  401600    2.3400426 -0.00027018596    1.6577914     4.933581  0.002838804 
  401800    1.7068928 -0.00025192049    2.5480081    4.9374061 -0.00018077365 
  402000    2.2564994 -0.0004052314    1.7753665    4.9340604 0.0038823931 
  402200    1.8872086 -0.00025599954    2.2941611    4.9359972 -0.0016247201 
  402400    1.4150916 -0.00029350647    2.9619393     4.942774 -0.0023694619 
  402600    1.6039148 -0.00028834755    2.6948975    4.9400899 0.0017127998 
  402800    1.7784319 -0.00030674414    2.4497401     4.939238 0.00038407758 
  403000    1.7713909 -0.00038053913    2.4578905    4.9374572 0.0011842344 
  403200    1.8701902 -0.00024309429    2.3221335    4.9401567 -0.0018617929 
  403400    1.9908784 -0.00031160133     2.155334    4.9422522 0.0013555658 
  403600    1.8876245 -0.00026874051    2.3016943    4.9440999 0.0019920239 
  403800    1.8038356 -0.00034787623     2.417492    4.9425139 0.0022297179 
  404000    2.0433214 -0.00029450227    2.0811109    4.9414663 0.00073962844 
  404200    2.1215479 -0.00032638832    1.9701267    4.9399673 0.0010350773 
  404400    1.6475302 -0.00023358334     2.639165    4.9454737 -0.0059863743 
  404600    1.8459053 -0.00034883872    2.3633002    4.9472189  0.002801744 
  404800     2.017727 -0.00031428485    2.1189331    4.9434367 8.1752828e-06 
  405000    1.1545265 -0.00028440127    3.3348074      4.95086 -0.0028442077 
  405200    2.2431344 -0.00035860563    1.7990078    4.9390373 0.0031761611 
  405400    1.8171819 -0.00026019337      2.40507    4.9488645 -0.0021982429 
  405600    1.4327635 -0.00032635017    2.9472383    4.9527809 -0.0040110945 
  405800    1.8490905 -0.00032231644    2.3636157    4.9520201 -0.0005436356 
  406000    2.1840977 -0.00031487235    1.8900262    4.9474482 3.0721669e-05 
  406200    1.8285766 -0.00024705138    2.3931414    4.9529016 -0.0011881746 
  406400    1.9587392 -0.00034084532    2.2105582    4.9524522 0.0031006276 
  406600    1.8395673 -0.00025027618    2.3780133    4.9531572 -0.0022138087 
  406800    2.0350898 -0.00035423774     2.105059    4.9538304 0.0028026398 
  407000    2.0216076 -0.00027353374    2.1221554    4.9521325 -0.00058326355 
  407200    1.9442785 -0.00026872333    2.2308036    4.9525248 -0.0017403771 
  407400    1.8398505 -0.00031884925    2.3822096    4.9576815 0.0025488414 
  407600    1.8923185 -0.0003308401    2.3071913    4.9561063 0.0046842411 
  407800    1.7561895 -0.00023395841    2.4989728    4.9574042 -0.0027508825 
  408000    2.0305091 -0.00033925752    2.1139708    4.9563443 0.0074502512 
  408200    2.0615633 -0.00021808744    2.0741011    4.9600716 -0.004643335 
  408400    1.8094059 -0.00032483689     2.427594    4.9604374 0.0045684575 
  408600    2.1644518 -0.0002903568    1.9298663    4.9598084 0.00018562076 
  408800    1.6623202 -0.00034040899    2.6332067    4.9601146 0.0021728215 
  409000    1.8555073 -0.0002340937    2.3646564    4.9621325 -0.0020854484 
  409200    1.8869554 -0.00038179679    2.3224726    4.9638283 0.0030047384 
  409400    1.6393666 -0.00021925125    2.6692278    4.9641218 -0.0046120341 
  409600    1.7556678 -0.00035235175    2.5085666    4.9661492 0.00095889368 
  409800    2.0616904 -0.00029770062    2.0779383    4.9640072 0.0040478529 
  410000    2.1723023 -0.00029336301    1.9216438    4.9625736  0.001086237 
  410200     1.751572 -0.00023593895    2.5177498    4.9697147 -0.0017152319 
  410400    1.3021152 -0.00038407881    3.1481008     4.970678 0.0030235425 
  410600    2.0023117 -0.00024185528    2.1628259    4.9658203 -0.0024230127 
  410800    1.8072537 -0.00028109501    2.4390081    4.9688823 0.00036886076 
  411000    1.8781066 -0.00028805024    2.3392244    4.9682856 -0.0013511974 
  411200    1.9529547 -0.00032975991     2.235429    4.9692358 0.0055267142 
  411400    1.6444827 -0.00025470292    2.6702296    4.9722507 -0.0015352117 
  411600    1.7131911 -0.00035416449    2.5744675    4.9725808 0.0074412732 
  411800    1.7612546 -0.00023971488    2.5066373    4.9721541 -0.0058890757 
  412000     1.822963 -0.00032188876    2.4189998    4.9708262 -0.00067153573 
  412200    1.3957042 -0.00029364498    3.0201801    4.9738723 -0.0029293467 
  412400    2.0742576 -0.00035245066    2.0688457    4.9724539 0.0037773436 
  412600    2.2665661 -0.00024445343    1.7991107    4.9720587 0.00054159977 
  412800    2.1547445 -0.00037368244    1.9580943     4.974363  0.002320455 
  413000    1.3738015 -0.00023638183    3.0534221    4.9765079 -0.0034644231 
  413200    1.6033739 -0.00042074482    2.7335838    4.9778864 0.0034988272 
  413400    1.4141855 -0.00024647861    2.9969218     4.976535 -0.0028367314 
  413600    2.3340814 -0.00028888709    1.7080194    4.9754444 -0.000813809 
  413800    2.1745722 -0.00032913194    1.9351905    4.9792624 0.0026834926 
  414000    2.1042075 -0.00034280504    2.0333943     4.978942 0.0020648239 
  414200    2.3285271 -0.00031776726    1.7195571    4.9791773 0.00019893914 
  414400    2.5660856 -0.0002914319    1.3873495     4.979578 0.0052099942 
  414600    1.9211957 -0.00027340083    2.2910419    4.9804426 -0.00050886194 
  414800    1.9701796 -0.00029235841    2.2220448    4.9800039 0.0018365784 
  415000    1.7018729 -0.00042834568     2.601224    4.9834176 0.0039408254 
  415200    1.9078285 -0.00025220408    2.3105636    4.9812712 -0.0033922682 
  415400    2.2605862 -0.00028662085    1.8173823    4.9819164 0.0012729905 
  415600     2.391594 -0.00035172132    1.6358885    4.9837684 0.0049988965 
  415800    1.5398085 -0.00036379791    2.8319539     4.987322 0.0022632247 
  416000    1.9348825 -0.00028412019    2.2793702    4.9879215 -0.0041230154 
  416200    2.2343777 -0.00035336471    1.8551346    4.9829101 0.0047168756 
  416400    2.3040409 -0.00025409931    1.7627723    4.9881755 -0.0031644766 
  416600    1.8510933 -0.00033323578    2.3993116     4.990509 0.0022150177 
  416800    1.9352009 -0.00034559082    2.2818787    4.9908144 0.00092882519 
  417000      2.02158 -0.00029674525    2.1624382    4.9923534 -5.8308153e-05 
  417200    1.6296394 -0.00025316835    2.7111308    4.9923728 -0.0013052018 
  417400     1.883954 -0.00030644797    2.3537573    4.9909865 0.00024612548 
  417600    1.3937572 -0.00032000368    3.0438486    4.9947886 0.0028874476 
  417800    1.6245609 -0.00029853435    2.7216932      4.99578 -0.0013177382 
  418000     1.944111 -0.00035386425    2.2716021    4.9930036 0.0030473116 
  418200    1.8079868 -0.00022983465    2.4637776    4.9947294 -0.0053428876 
  418400    1.9286616 -0.00033287664     2.296384    4.9961774 0.0051931344 
  418600    2.5223707 -0.00026040354    1.4623631    4.9934218  0.002087347 
  418800    2.5094504 -0.00028020797    1.4784716    4.9914219 0.0013313699 
  419000    1.7764991 -0.00029710279    2.5105324     4.997334 0.0044096139 
  419200    2.3166519 -0.00023800816    1.7537492    4.9968238 0.00075826612 
  419400    2.1410206 -0.00036873862     2.000223    4.9972831  0.003976762 
  419600    2.2330636 -0.00028286115    1.8690998    4.9951059 -0.0037087557 
  419800    2.3717943 -0.00029754386    1.6752555      4.99547 0.0022937742 
  420000    2.3487244 -0.00030802957    1.7114943    4.9994004 0.0018282271 
  420200    1.6679386 -0.00024285103    2.6695261    5.0043973 -0.00089523533 
  420400    1.7529648 -0.00030872619    2.5481277    5.0019697 -0.0017051503 
  420600    1.7681963 -0.00031520011    2.5286282    5.0037878   0.00488191 
  420800     1.656609 -0.00026239624    2.6873514    5.0063416 -0.0014826626 
  421000    1.9548728 -0.00025115233    2.2674071    5.0039778 -0.00038106525 
  421200    1.7559334 -0.00030498618    2.5501127    5.0081145  0.005073878 
  421400    1.4998225 -0.0002883916     2.909077    5.0085401 0.00096801624 
  421600    1.8665497 -0.00026067232    2.3921763    5.0050852  0.001686445 
  421800    1.9074005 -0.00032614841    2.3365148    5.0065493 -0.00048458725 
  422000    1.7378232 -0.00023488053    2.5779731    5.0106907 -0.0031888435 
  422200    1.8316888 -0.00033696843    2.4425323    5.0065597 0.00068609583 
  422400    1.4173569 -0.00029098224    3.0269047    5.0109135 0.0014972459 
  422600    2.1837202 -0.000294615    1.9545276    5.0114413 0.0026608997 
  422800    2.0934247 -0.00026063897    2.0788766    5.0094105 0.00065291223 
  423000    2.2068395 -0.00028012941    1.9193658    5.0086609 0.0017642714 
  423200    2.0544589 -0.00031059931     2.134984    5.0109158 0.00045744368 
  423400    2.2853698 -0.0003035616    1.8074802    5.0066944 0.0010052227 
  423600    2.1324576 -0.00027141537    2.0263747    5.0115439 -0.0019575085 
  423800    1.4489392 -0.00028064801    2.9914965    5.0197307 -0.0014183647 
  424000    1.8094648 -0.0002621567    2.4844493    5.0174379 -0.0029144618 
  424200    2.1255368 -0.00033246985    2.0370583    5.0124773 0.0054756019 
  424400    2.1383004 -0.00030505327    2.0219048    5.0152203 -0.00010515876 
  424600     2.060926 -0.00026792114    2.1311016    5.0161301 0.00088064595 
  424800    2.1823879 -0.00028995583    1.9618054    5.0168585 0.0033534109 
  425000    2.2376976 -0.00027216474    1.8839319    5.0164364 0.00030266253 
  425200    1.9693737 -0.00026013349     2.262923     5.019786 0.00059400838 
  425400    2.1022321 -0.00033884905    2.0777853    5.0205714 0.0041361623 
  425600    2.1415823 -0.00022984891    2.0228238    5.0208091 0.0023828902 
  425800    2.0733894 -0.0002880472    2.1178565    5.0203136 0.0003528273 
  426000    1.9276288 -0.00030521204    2.3242431    5.0226182 0.0038747588 
  426200    2.1656776 -0.00029827623     1.991327    5.0229775  0.002994521 
  426400    2.2527436 -0.00025209967    1.8674077    5.0209967 -0.0012516852 
  426600    2.1811505 -0.00030064367    1.9709929     5.024303 0.0016361672 
  426800    1.9755431 -0.00025801921    2.2610537    5.0265561 -0.0046041374 
  427000    2.1298382 -0.00037005363    2.0431524    5.0245559 0.0050480697 
  427200    1.4286322 -0.00027863438     3.028965    5.0287714 -0.0062756541 
  427400    1.7996445 -0.00027077064    2.5090709    5.0283024 -0.00064174765 
  427600    2.1080236 -0.00031241351    2.0775027    5.0284233 -0.0009100987 
  427800    1.8170821 -0.00034519694    2.4829405    5.0265102 0.0015991403 
  428000    1.9435333 -0.00025369889    2.3080429    5.0287358 -0.0082512494 
  428200    2.1179726 -0.00031380384    2.0653743    5.0302222 0.0057881373 
  428400    1.8445682 -0.00023926421    2.4494647    5.0316208 -0.0024696609 
  428600    1.7296307 -0.00032849971    2.6104933    5.0316477 0.0019108066 
  428800    1.7183013 -0.00028351443    2.6301416    5.0354799 0.00060193453 
  429000     1.518955 -0.00029434415    2.9112217    5.0374643 -0.0025957422 
  429200    1.2811586 -0.00023559237    3.2449662    5.0383526 -0.00094376453 
  429400    1.6088928 -0.00029996232    2.7821436    5.0342935 -0.0042090194 
  429600   0.98093301 -0.00025573569     3.666808    5.0398584 -0.003320878 
  429800    1.7145554 -0.00036588116    2.6375495    5.0375611 0.00024757665 
  430000    1.4525778 -0.00027024831    3.0063725    5.0397113 0.00031954369 
  430200    1.9678062 -0.00027121641    2.2821774    5.0368348 -0.0039730744 
  430400    1.9106495 -0.00030829595    2.3639319    5.0385329 -0.0012700283 
  430600    1.6485029 -0.00033161355    2.7319156    5.0394881 -0.0017082759 
  430800    2.0678198 -0.00025485583    2.1453466    5.0400395 -0.003791236 
  431000    1.9379031 -0.00031260809    2.3289522     5.041704 0.0038660175 
  431200    1.3671242 -0.00026673736    3.1306232    5.0443303 -0.0032727346 
  431400    2.0203764 -0.00030877465    2.2126757    5.0408938 0.0012794193 
  431600    1.6808722 -0.00031040674    2.6910295    5.0439401 0.0010208352 
  431800    1.8840288 -0.0002597686    2.4056853    5.0430658 -0.0016997423 
  432000    1.4551622 -0.00028358039    3.0095989    5.0465424 -0.0028684445 
  432200    1.9917315 -0.00026099111    2.2515146    5.0396777 9.094122e-05 
  432400    2.1217201 -0.00030599929    2.0720941    5.0421962 0.0019207893 
  432600    2.3854029 -0.00028716816    1.7036362     5.042913 0.0024064645 
  432800    1.8938528 -0.00028561791    2.3958199    5.0469282 0.0022014797 
  433000    2.5718313 -0.00024217584    1.4424381    5.0427598 -0.00045649903 
  433200    2.3628909 -0.00033024535    1.7373766    5.0450936  0.002646702 
  433400    2.3691474 -0.00027058018    1.7292262    5.0457619 -0.00058838196 
  433600    2.1255508 -0.00029793665    2.0734431    5.0489163 0.0017618272 
  433800    1.7334096 -0.00024665138    2.6262426    5.0527693 -0.00063402658 
  434000    2.4193802 -0.00034712009    1.6594844    5.0462696  0.006324392 
  434200    1.9621497 -0.0002244922     2.306281    5.0530661 -0.0033419663 
  434400    1.8912458 -0.00030633558    2.4056135    5.0530512 0.0013034892 
  434600    1.7821535 -0.00025920605    2.5590198    5.0537755 -0.0023452024 
  434800    1.4696936 -0.00031848718    2.9995664     5.056819 -5.6016383e-05 
  435000    1.7966038 -0.00024645254     2.542756    5.0577549 -0.0038875014 
  435200    1.7877239 -0.00034973398    2.5518495    5.0543132 0.0042622722 
  435400    1.4461746 -0.0002235049    3.0357251     5.060146 -0.0078051477 
  435600    1.3980419 -0.00031137678    3.1030222    5.0599695 0.00094555556 
  435800    1.9542513 -0.00026902195    2.3188727    5.0545554 -0.0039019452 
  436000    1.5636359 -0.00032769605    2.8699759    5.0587385 -0.00058453668 
  436200    1.9072742 -0.00030423057    2.3890111    5.0588908 -0.001560901 
  436400    1.6011434 -0.00029667438    2.8206294    5.0619334 0.0018664819 
  436600    2.4023877 -0.00024325528    1.6964706    5.0595701 -0.00096953001 
  436800    1.9421438 -0.0003210848    2.3418367    5.0605169 0.0048177056 
  437000    2.0339221 -0.00030415617    2.2147353    5.0619221 0.0034001438 
  437200    1.8711804 -0.0002540822    2.4458703    5.0652687 -0.0036857217 
  437400    1.8752547 -0.00027935289    2.4380961    5.0631733 0.00025835605 
  437600    2.1726572 -0.00028264793    2.0214184    5.0628558 0.00042395795 
  437800    2.1775965 -0.00027871732    2.0144687    5.0628251 0.0031316754 
  438000    2.2029352 -0.00027736793    1.9773374    5.0611693 -0.0021890365 
  438200     2.068759 -0.00030404307     2.172351    5.0683095  0.004143762 
  438400     1.828408 -0.00024456288    2.5110165    5.0705431 -0.0036847499 
  438600    2.3548929 -0.00031481561    1.7698116    5.0663468 0.0049513596 
  438800    2.2079879 -0.00027274659    1.9755424    5.0664527 -0.00037826815 
  439000    2.2599075 -0.00030423978    1.9017232    5.0652894 0.00089682417 
  439200    2.4045183 -0.00026406829    1.7006747    5.0667363 0.00040798026 
  439400    1.6516584 -0.00028437289    2.7606542    5.0726916 0.0022609749 
  439600    1.9034142 -0.00029173707    2.4089511    5.0734393 0.00079485098 
  439800    1.9176181 -0.000308741    2.3866398    5.0709965 -0.0015763615 
  440000    1.5502732 -0.00028283911    2.9051844     5.075284 -0.0014436893 
  440200    1.7586345 -0.00027385457    2.6145093    5.0763238 -0.0023807486 
  440400    1.6885449 -0.00029131456    2.7133419    5.0770135 -0.0019397505 
  440600    1.9910612 -0.00035144143    2.2882861    5.0754203 0.0020578189 
  440800    1.9714205 -0.00024626869     2.315939    5.0756814 -0.0022305255 
  441000    1.7961581 -0.00031817843    2.5644014    5.0787046 0.0033365518 
  441200    1.9360511 -0.0002650826    2.3684829    5.0786893 -0.0027993085 
  441400     1.762618 -0.00032644553    2.6097965    5.0771352 0.0014937815 
  441600    1.5536856 -0.00030468303    2.9076248    5.0824799 -0.0040426602 
  441800    2.1048541 -0.00029314329    2.1331348    5.0796374 0.0003367766 
  442000    2.0440079 -0.00029945939    2.2196061    5.0809178 -0.0008482296 
  442200    1.6911177 -0.000306954    2.7159414    5.0831993 0.0026856102 
  442400    2.0365453 -0.00027868382    2.2311299    5.0820147 -0.0026299729 
  442600    1.9627096 -0.00030948842    2.3355674    5.0830513 0.00098805681 
  442800    1.9816234 -0.00031145595    2.3088229    5.0827842 -0.00087987405 
  443000    1.4144199 -0.00022563131    3.1076128    5.0875751 -0.0048926763 
  443200    2.0822624 -0.00034697283    2.1706276    5.0854479 0.0044928326 
  443400    2.1399303 -0.00029025012    2.0899719     5.085584 0.0038163727 
  443600     1.242665 -0.00024404976    3.3511794    5.0906663 -0.0050418854 
  443800    2.0749545 -0.00030295257    2.1823251    5.0869584 0.0045610824 
  444000    1.9420451 -0.00031882282    2.3720566    5.0906009 0.00081330269 
  444200    1.8418606 -0.00026593507    2.5092756    5.0876145 -0.0060345502 
  444400    1.8122444 -0.00032364061    2.5543177    5.0911362 -0.0029413752 
  444600    1.6771054 -0.00038091742    2.7419235    5.0894901  0.003813494 
  444800    1.7936639 -0.00024486221    2.5805727    5.0914574 -0.0034420261 
  445000    2.1689979 -0.00034323341    2.0564477    5.0927015 0.0023164439 
  445200    1.8934271 -0.000287371    2.4426426    5.0931531 -0.00055456617 
  445400    1.7567163 -0.00034400208    2.6348954    5.0939543 -0.0013709376 
  445600     1.881918 -0.00027913352    2.4608549    5.0952609 -0.002307654 
  445800    1.9076152 -0.00035863504    2.4251375    5.0954402 0.0006357335 
  446000    1.2600895 -0.00026011569    3.3350469    5.0989121 -0.0068411851 
  446200    1.7671425 -0.00037833621    2.6230446    5.0966657 0.0027857108 
  446400    1.7986669 -0.000236708     2.579056     5.096953 -0.0063277635 
  446600    1.7311305 -0.00039256206    2.6760539     5.099244 0.0017781271 
  446800    1.9633138 -0.00024371853    2.3491002    5.0974958 -0.0014527973 
  447000    2.0948982 -0.00033262105    2.1679574    5.1004822 -0.00043177321 
  447200    1.6349882 -0.00033737094    2.8144617    5.1031079 0.00079993519 
  447400     2.168311 -0.00032916272    2.0632945    5.0986008 0.0012687967 
  447600    2.2463961 -0.00023427801    1.9573933    5.1021135 -0.0023078719 
  447800    2.3040042 -0.00036165827    1.8772311    5.1024753 0.0040258799 
  448000    1.5237777 -0.00028741256    2.9712798    5.1042812 -0.0073898175 
  448200    2.0290342 -0.00033482413    2.2622335    5.1025466 0.00028332301 
  448400    2.2767422 -0.00037680468    1.9158457     5.102908 0.0052444244 
  448600    1.9291252 -0.00023498702    2.4048854    5.1054257 -0.00033324515 
  448800     1.742165 -0.00033367631    2.6698994    5.1085967 0.00030088552 
  449000    1.7295061 -0.00033182837    2.6879247    5.1089015 0.0012567909 
  449200    1.5730273 -0.00028303093    2.9083691    5.1103243 -0.0027225309 
  449400    2.1347605 -0.00026771676    2.1180541    5.1064511 0.00087283236 
  449600    2.3227478 -0.00038688258    1.8541208    5.1055808 0.0067002554 
  449800    1.3976241 -0.00024968951    3.1549104    5.1113344 -0.0075127893 
  450000    1.7000477 -0.00033060385    2.7319981    5.1117344 0.00047278884 
  450200     1.925665 -0.00031597764    2.4166041    5.1122191 -0.0011450771 
  450400    1.8695433 -0.00027065645    2.4971054    5.1141954 0.00085486594 
  450600    1.6417339 -0.00033755109    2.8146064    5.1126963 -0.0034675759 
  450800     1.847025 -0.00029372967    2.5284272    5.1139684 7.071094e-05 
  451000    1.8215278 -0.00027357258    2.5673479    5.1172132 -0.0042167062 
  451200    1.7134038 -0.00028515797    2.7161177    5.1145978 -0.0025385493 
  451400    1.3728285 -0.00030013746    3.1950176    5.1166774 -0.0085333357 
  451600    1.5836385 -0.0003499062     2.901665     5.118409 -0.00092549196 
  451800    1.7876007 -0.00028789253    2.6169234    5.1192764 -0.0013911864 
  452000    2.3241402 -0.00030569595    1.8612642    5.1147548 0.0013031182 
  452200    1.9641965 -0.00040004104    2.3686299    5.1181049 0.0040285331 
  452400    1.4407912 -0.0002740927    3.1043258    5.1211595 -0.0066089229 
  452600    2.1231119 -0.00039217559    2.1500314    5.1219958 0.00017024687 
  452800    2.5520362 -0.00028361024    1.5465289    5.1190959 0.00041584629 
  453000    2.3581092 -0.00037246379    1.8178275    5.1188079  0.004452635 
  453200    1.7754595 -0.00025785897    2.6369538    5.1223392 -0.00021432823 
  453400    1.3094454 -0.00040418345    3.2934227     5.126242 0.0015045489 
  453600    1.8354433 -0.00026249506    2.5548897    5.1242478 -0.0021560394 
  453800    1.9173197 -0.0002805205    2.4413049     5.125272 -0.0028349079 
  454000    1.6501917 -0.000288817    2.8155986    5.1255781 -0.0040313065 
  454200    2.0902191 -0.00038098553    2.1996514    5.1255772 8.8546285e-05 
  454400    2.1146102 -0.00038296518     2.166558    5.1266293 0.0043672442 
  454600    2.0919528 -0.00021992537    2.1992162    5.1277302 -0.0028519939 
  454800    2.0559689 -0.00039651344    2.2512072    5.1291672 0.0062975325 
  455000    2.4133205 -0.00032007013    1.7492606    5.1275892 0.0040123653 
  455200    1.7010024 -0.00036987719    2.7485924    5.1296259 -0.0012666008 
  455400    2.2764087 -0.00025112106    1.9404767    5.1271978 -0.00033376586 
  455600    1.9648427 -0.00040808684    2.3778506    5.1282222  0.003856406 
  455800     1.810535 -0.00026682072    2.5987547    5.1332369 -0.0059693416 
  456000     1.867712 -0.00034363747    2.5204438     5.134897 -0.0017465437 
  456200    1.7786993 -0.00037895639     2.644978    5.1347781 -0.00040603524 
  456400    1.8384184 -0.00024607855    2.5618601    5.1353998 -0.0045115112 
  456600    1.4092737 -0.00034929285    3.1626033    5.1352372 -0.00047086976 
  456800    1.6101479 -0.00032584421    2.8825675    5.1364488 0.00034282255 
  457000    1.9151812 -0.00029188919    2.4546972     5.135659 -0.00031890996 
  457200    2.2455821 -0.00026787971     1.991338    5.1348851 0.0019249493 
  457400    1.9770249 -0.00028540397     2.370454    5.1380035 0.0022623596 
  457600    2.1618925 -0.00035259602    2.1130468    5.1393436 0.0044909783 
  457800    1.5278131 -0.00028469026    3.0030755    5.1417291 -0.003626642 
  458000    1.8156998 -0.00026465875     2.599751     5.141466 -0.00096308098 
  458200    2.2651227 -0.0003715187    1.9686624    5.1394626 0.0043521314 
  458400    1.7350665 -0.00023978059    2.7138662    5.1427196 -0.0054315677 
  458600    1.9594195 -0.00047457546    2.3980819    5.1407946 0.0031001053 
  458800    2.0895445 -0.00043074264    2.2189043    5.1438358 0.0053166656 
  459000    1.7345186 -0.00026362986    2.7150298    5.1430922 -0.0025209447 
  459200    1.8883024 -0.00025238992    2.5025098    5.1458807 0.0021801394 
  459400    1.9826013 -0.00035142747    2.3697798    5.1450701 0.0037239959 
  459600    1.9272361 -0.00037908634    2.4480067    5.1457582 -0.0040245739 
  459800    1.8278287 -0.00028345114     2.587148    5.1458247 -0.0054111555 
  460000    1.6540307 -0.00048355476    2.8352103    5.1503697  0.001693353 
  460200    2.1835386 -0.00023625115    2.0916754    5.1483931 -0.00084917889 
  460400    1.9061424 -0.00043052668    2.4813165    5.1494854  0.001524869 
  460600    1.7904727 -0.00035995847    2.6436055    5.1499073 -0.002329077 
  460800    1.4757898 -0.00051472048    3.0865941    5.1521851 -0.0045533503 
  461000    2.3017777 -0.00024322512    1.9283415     5.150587 -0.0051366827 
  461200    1.9504909 -0.00046673932    2.4213611    5.1515816  0.004729362 
  461400    1.6447961 -0.00028682589    2.8510657    5.1534934 -0.0057683441 
  461600    2.0788351 -0.00032140775     2.243871    5.1539188 -0.0025334264 
  461800    2.0786454 -0.0003871541    2.2423072    5.1520235 0.0042413019 
  462000    1.8913889 -0.000305994    2.5069571    5.1545956 -0.0017255666 
  462200    1.4829845 -0.00027816343    3.0813382    5.1572383 -0.0051048952 
  462400    2.0143671 -0.00036510177    2.3367186    5.1564675 -0.0017723093 
  462600     2.153912 -0.00042279519      2.13975    5.1548041 0.0070704599 
  462800    1.7548062 -0.00021575861    2.7024548    5.1589677 -0.0035963931 
  463000    2.0059881 -0.00027468004    2.3479161    5.1560248 0.0012826083 
  463200    1.7197166 -0.00038867975     2.752678    5.1598925 0.0023408969 
  463400    2.1471614 -0.00033267927    2.1527511    5.1584444 0.0022561971 
  463600     1.860276 -0.00033524954    2.5590031    5.1630543 -3.6686759e-05 
  463800    2.3127827 -0.000252341    1.9231592    5.1608026 0.00045621175 
  464000    1.7427718 -0.0002968516    2.7229509    5.1625345 -0.0037328328 
  464200    1.5871257 -0.00034311027    2.9423521     5.163985 -0.0039293693 
  464400     1.834801 -0.00032947564    2.5941237    5.1625156 -0.0014826072 
  464600    1.9780331 -0.00038637281    2.3968077    5.1656676 0.0040559684 
  464800    1.9283993 -0.00017716329    2.4646204    5.1642022 -0.0041201714 
  465000    1.9663222 -0.00041807535    2.4103374    5.1627704 0.0011830689 
  465200    2.0613494 -0.00039248952    2.2802164     5.165713 0.0039902006 
  465400    1.6330046 -0.00035944373    2.8831236    5.1689706 -0.0065474392 
  465600    2.0850682 -0.00030910977    2.2504254    5.1692118 0.0044273609 
  465800    2.5215152 -0.00028536107    1.6391365    5.1689725 0.00060010934 
  466000    2.2372884 -0.00037960389    2.0328442    5.1646684 -0.0036636919 
  466200      2.01768 -0.00030141555    2.3451772    5.1696278 -0.00048283922 
  466400    1.9922534 -0.00046866757     2.384376    5.1730621 0.0030940507 
  466600    1.4156052 -0.00022623123    3.1925725    5.1741936 -0.0040737878 
  466800    2.3362275 -0.00031487932    1.9008137    5.1712173 -0.0021029786 
  467000    1.8763223 -0.00031711954     2.545492    5.1720261 0.0022282577 
  467200    1.8905975 -0.00048861526    2.5266674    5.1730152 0.0043847388 
  467400    2.1382799 -0.00024446542    2.1813099    5.1746573 9.2978142e-06 
  467600    1.8578698 -0.00027233312    2.5756094    5.1763547 0.0027152233 
  467800     2.074079 -0.00027197119     2.271337    5.1747757 -0.00033857306 
  468000    1.8857525 -0.00041318268    2.5369516    5.1765919 0.0014732737 
  468200    1.7219227 -0.00032941191    2.7667483    5.1771108 -0.0040425098 
  468400    2.1401037 -0.00031551572    2.1843955    5.1802251 0.0050658151 
  468600    1.6153515 -0.00021974335     2.921771    5.1830434 -0.0092216576 
  468800    1.8162099 -0.00037867483    2.6375247    5.1798398 0.0024521612 
  469000     1.812832 -0.00045476809    2.6425404    5.1800504 -0.0002872417 
  469200    1.6731514 -0.00024615202    2.8379841    5.1801499 -0.0036396809 
  469400    2.0404237 -0.00033595065    2.3287248     5.184982 0.00069762957 
  469600    1.8206854 -0.00021219642    2.6346312    5.1833785 -0.0055346453 
  469800    1.9172418 -0.00039759863    2.4978113    5.1815522 0.00069553049 
  470000    2.0898008 -0.00039949213    2.2588754    5.1841971 0.0043449815 
  470200    1.9287531 -0.00030826083    2.4850129     5.184959 0.00027312802 
  470400    2.0333748 -0.0002384384    2.3402938      5.18678 -0.0053859787 
  470600    2.2438933 -0.00033164477    2.0440316    5.1851506 0.0043154359 
  470800    1.7560717 -0.00033912114    2.7273594    5.1855206 -0.004234433 
  471000    2.3300015 -0.00041051033     1.923724    5.1853156 0.0064254667 
  471200    1.6200171 -0.00029243586    2.9206366    5.1883682 -0.0050289212 
  471400    2.0351359 -0.00025543429    2.3398524    5.1887873 0.00054424276 
  471600    1.6289348 -0.00034462377    2.9084854    5.1886495 -0.0038839594 
  471800    1.7650197 -0.00032934252    2.7189552    5.1896534 0.0010256387 
  472000     1.823766 -0.0004119206    2.6406454    5.1935059 0.0031347307 
  472200    2.1413015 -0.00028135156    2.1929357    5.1904766 -0.00041628193 
  472400    1.6651905 -0.00026746966    2.8594243    5.1904235 -0.0049815779 
  472600    1.9365162 -0.00035211201    2.4830141    5.1937847 0.00094837594 
  472800    1.9203065 -0.00040358739    2.5057864    5.1938119 0.0010342815 
  473000    1.6492786 -0.00040900664    2.8876342    5.1962153 -0.00010935664 
  473200    1.8699871 -0.00029559341    2.5760897     5.193776 -0.0054853616 
  473400    2.4209448 -0.00030977658    1.8061844    5.1951973 -0.001746795 
  473600    2.0538702 -0.00035613792    2.3229582    5.1980203 0.00035388814 
  473800    1.9218073 -0.00038168439    2.5072788    5.1974273 -0.0004440074 
  474000    1.4080248 -0.00028908495    3.2307049    5.2016506 -0.0023644353 
  474200    2.3078075 -0.00036625691     1.964269    5.1948332 0.0056499621 
  474400    1.7370368 -0.00020332469    2.7695124    5.2011606  -0.00857083 
  474600    1.7056403 -0.00037324729    2.8135523    5.2010754 -0.0011910504 
  474800    1.4784075 -0.00034446104    3.1356681    5.2050942 -0.00095663284 
  475000    1.8028784 -0.0003196414    2.6817438    5.2054539 0.00017962414 
  475200    1.9029599 -0.00028210488    2.5401541    5.2040158 0.00054872322 
  475400    1.8926731 -0.00034440863    2.5554154    5.2048134 0.0031169173 
  475600    2.2719702 -0.00026873541    2.0220947    5.2025842 -0.0014031594 
  475800    1.7136356 -0.00040700357    2.8074508    5.2061337 0.00061560367 
  476000    1.8225015 -0.0003210839    2.6533186    5.2044996 -0.0026308568 
  476200     1.827459 -0.00033094249     2.650164    5.2082757 0.00059304165 
  476400    1.8304955 -0.00028885043    2.6484044    5.2108092 -0.0025838188 
  476600    2.0770945 -0.00031613028    2.3007547    5.2083709 0.0010772095 
  476800    1.6165323 -0.0004337795    2.9471211    5.2098326 0.0027549456 
  477000    2.0080434 -0.00025133099    2.3981238    5.2091333 -0.0062407099 
  477200    2.1802941 -0.00034508031    2.1580103    5.2100771 0.0035976203 
  477400    2.3477537 -0.00033990552    1.9224713    5.2089866 0.0034046761 
  477600    1.7070822 -0.00039206261    2.8230839     5.212607 -0.00071268516 
  477800     1.802907 -0.00029181485    2.6899101     5.213688 -0.0031898862 
  478000    1.9028405 -0.00037441794     2.542687    5.2062893 0.00088260766 
  478200    1.8862971 -0.00023857941    2.5752199    5.2157973 -0.0054414223 
  478400    1.9519618 -0.00038010358    2.4818211    5.2141876 -0.00041527955 
  478600    1.6201482 -0.00035096131    2.9492705    5.2171269 0.0010076634 
  478800    1.9577891 -0.00036620192    2.4787442    5.2192828 0.0017829851 
  479000    2.2220088 -0.00027962758      2.10863    5.2191627 0.00021980013 
  479200     1.655929 -0.00028776018    2.9029621    5.2209749 -0.00013575956 
  479400     2.100647 -0.00032913175    2.2770175    5.2175942 0.00033313621 
  479600     2.044062 -0.00037876947    2.3562932    5.2176012 0.0021014726 
  479800    2.0545842 -0.00025360353    2.3424139    5.2185782 -0.001481448 
  480000    2.4299526 -0.00035964428    1.8167787    5.2183527 0.0046219558 
  480200    1.3057154 -0.00021815239    3.3959621    5.2237455 -0.0099993891 
  480400    1.5606737 -0.00047523508     3.039107     5.223575 0.00097399817 
  480600    1.9794772 -0.0002869894    2.4539262    5.2249072 0.0015368207 
  480800    2.2452422 -0.00028061766    2.0795635    5.2226219 0.0020748391 
  481000    1.5766874 -0.00028159638    3.0200791    5.2271598 -0.00071461918 
  481200    1.7518534 -0.0003677084     2.773972     5.226199 0.0011586602 
  481400    2.0251491 -0.00029179015    2.3918453    5.2267623 -0.0016921421 
  481600      2.45624 -0.00030222119    1.7859006    5.2243344 0.0033902971 
  481800    2.0214633 -0.00026812686    2.4012558    5.2310363 0.0026114893 
  482000     1.770632 -0.00030597397    2.7515956    5.2301745 9.7962484e-05 
  482200    1.5177459 -0.00034179296    3.1069123    5.2314149 -0.00072928136 
  482400    2.1097509 -0.00030990222    2.2781168    5.2314581 0.0026524883 
  482600    1.9285869 -0.00032811054    2.5314123    5.2311058 0.0016139922 
  482800    2.0002934 -0.00022819325    2.4285304     5.228713 -0.0052596534 
  483000     2.159418 -0.00034555645    2.2077885    5.2306282 -9.6348734e-05 
  483200    2.1500147 -0.00029226481    2.2191076    5.2288359 -0.0010100441 
  483400     2.062508 -0.00037191863    2.3439566    5.2310958 0.0046286022 
  483600    2.3097206 -0.00027616024    1.9996637    5.2329963 7.5248133e-05 
  483800    2.0223368 -0.00029694092    2.4007128    5.2316873 -0.00050396529 
  484000    1.5999812 -0.00027368236    2.9998617    5.2395616 -0.0026633099 
  484200    2.2050466 -0.0004017928    2.1469362    5.2335996 0.0041669533 
  484400    1.8734238 -0.00027763442    2.6137201    5.2362358 -0.0030076473 
  484600    1.8859966 -0.00030570569    2.6009441    5.2410336 0.0016073267 
  484800    2.0231356 -0.00025522047    2.4068427    5.2389774 -7.7305284e-05 
  485000    2.0194004 -0.0003523335    2.4113542    5.2381624 0.0005649494 
  485200    1.7496636 -0.00030777237    2.7920659    5.2412871 -0.0019069866 
  485400    1.8122408 -0.00030680746    2.7052657     5.242096 0.0033001354 
  485600    2.2484678 -0.00030037669    2.0935209    5.2410755  0.005669255 
  485800    1.8953747 -0.00025125186    2.5915333    5.2448066 -0.0025301368 
  486000    1.4557866 -0.00031134113    3.2069111    5.2447011 -0.0033409342 
  486200    1.8340864 -0.000320918    2.6769526    5.2443527 0.0017552507 
  486400    1.9867248 -0.00034577894    2.4640444    5.2451133 0.0016854813 
  486600    1.9953993 -0.00022538378     2.452433    5.2457667 -0.0060368249 
  486800    1.7276471 -0.00034327859    2.8331723     5.251535 -0.00043929718 
  487000    1.9383939 -0.00028639124    2.5331103    5.2465753 -0.00035102463 
  487200    1.7341477 -0.00039335775    2.8212463    5.2486597 0.0021990315 
  487400    1.5934369 -0.00032465828    3.0168752    5.2473622 0.0001511969 
  487600    1.3521842 -0.0002452869    3.3590517    5.2518643 -0.0073372646 
  487800    1.7880887 -0.00027465775    2.7462723    5.2493219 -0.0038416554 
  488000     1.647699 -0.00037262189    2.9433917    5.2497977 0.0023438713 
  488200    1.8544613 -0.00034710942    2.6571807    5.2530794 0.00033980563 
  488400    1.8855374 -0.0002894021    2.6161383    5.2556012 -0.0019365759 
  488600    2.4892621 -0.00028957716     1.765253    5.2499303 0.00090138213 
  488800    1.5497161 -0.00031135319    3.0866615    5.2559527 -0.0046089073 
  489000    1.5418919 -0.00033521686     3.094975    5.2532884 -0.0027114949 
  489200     1.876555 -0.00038344326    2.6309679    5.2577615 0.0019610819 
  489400    2.0952766 -0.00025731519    2.3209595    5.2540894 0.00058359966 
  489600    1.8962818 -0.00026176774    2.6035206    5.2580533 -0.0044721749 
  489800    1.8294456 -0.00036131734    2.6962244     5.257087 0.00094561061 
  490000    1.9178738 -0.00037713182    2.5717676    5.2564138 -0.0029373801 
  490200    1.9139756 -0.00034819158    2.5782773    5.2574949 -0.0011950184 
  490400    2.7672699 -0.00029088651    1.3828971    5.2567841 0.0013263523 
  490600    2.1426373 -0.00027499232    2.2630771    5.2624943  0.002488494 
  490800    1.8714835 -0.00032848313    2.6404403    5.2601887 -2.2943862e-05 
  491000    1.4866046 -0.00032565613    3.1823745    5.2632953 -0.0019680841 
  491200    1.8894209 -0.00037320199    2.6196937    5.2645097 0.00080840165 
  491400    2.6567249 -0.00026776354    1.5393088    5.2584559 0.0012324393 
  491600    1.9248685 -0.00031834351    2.5680432    5.2625408 -0.0011748389 
  491800    2.1322378 -0.00030291276    2.2782575    5.2630875 -0.0012409438 
  492000    1.5597198 -0.00036307631    3.0826727    5.2659174 0.00085350704 
  492200    1.3898447 -0.00030639797    3.3210199    5.2664961 -0.0053418951 
  492400    1.7648378 -0.00027588837    2.7959221    5.2664191 -0.00052696828 
  492600    2.0577846 -0.00028540939    2.3880005    5.2686136 -0.00082094162 
  492800    1.8812775 -0.00033200756    2.6354942    5.2689507 0.00089343365 
  493000    1.7081307 -0.00031218368     2.875411    5.2664817 -0.0059318493 
  493200    1.8363711 -0.00038235255    2.6979244    5.2684616 -0.0004687039 
  493400     1.702278 -0.00030510293    2.8885777    5.2714618 0.0011191159 
  493600    2.0636062 -0.00025526256    2.3808714    5.2696649 -0.0053245525 
  493800    1.9709445 -0.00034825815    2.5089318    5.2679058 0.0010250708 
  494000     1.910426 -0.0003582602     2.597298    5.2715362 -0.0038358286 
  494200    1.8608827 -0.00038860097    2.6684524    5.2732995 0.0018571675 
  494400    1.5937623 -0.00026066023    3.0446134      5.27562 -0.0080483445 
  494600    1.8436051 -0.0003272345    2.6953754    5.2760952 -0.00065778568 
  494800    2.2069167 -0.00028376257    2.1824453     5.271845 -0.0014499557 
  495000    1.6997795 -0.00042902123    2.8974833    5.2767456 -0.0016240648 
  495200    2.0061278 -0.00036291678    2.4657215    5.2739375 0.0046190047 
  495400    2.6159856 -0.00025124775     1.614379    5.2765075 -0.0010366327 
  495600    1.9305157 -0.00027752425    2.5764814    5.2789259 -0.0021324416 
  495800    2.0256087 -0.00046062003     2.442864    5.2782555 0.0029212636 
  496000     1.945348 -0.00033913267    2.5581992    5.2813474 -0.0021539443 
  496200    1.8677931 -0.00028028023    2.6670638    5.2816939 -0.0015399145 
  496400    2.0336199 -0.00033538011    2.4343571    5.2810896 7.3942112e-05 
  496600    1.8163996 -0.00031464064    2.7401918    5.2828366 0.0015211004 
  496800    1.3101869 -0.00031007737    3.4501784      5.28413 -0.0049336337 
  497000    2.3992312 -0.00033488227    1.9238937    5.2824824 0.0037593029 
  497200     2.019242 -0.00033431176     2.461691    5.2882955 0.0048351298 
  497400    1.9409967 -0.00025677545    2.5685097    5.2856482 -0.0033349859 
  497600    1.9890791 -0.00034280036     2.500939    5.2853069 -0.0015772656 
  497800    1.8747786 -0.00031664213    2.6609253    5.2852986 -0.003515665 
  498000    1.8163371 -0.00030953513    2.7458427    5.2884052 0.0017162672 
  498200    1.8573924 -0.00021770126    2.6878858    5.2880175 -0.0064425252 
  498400    2.5169952 -0.00041318387    1.7622559     5.285636  0.010545514 
  498600    2.4059786 -0.00030565142    1.9203033    5.2883677 0.0013379186 
  498800    2.2322626 -0.00033353196    2.1624266    5.2872607 0.00061347145 
  499000    1.9113096 -0.00029472459    2.6153704    5.2909091 -0.0046170881 
  499200    2.1031884 -0.00028393042    2.3478586    5.2920384 -0.0014829192 
  499400    1.9625584 -0.00035559239     2.543619    5.2908451 0.00041154465 
  499600    2.1547827 -0.00031999714    2.2742675    5.2906432 0.00091095273 
  499800    1.7728882 -0.00029293827    2.8112806    5.2930312 0.00044898039 
  500000    1.8327423 -0.00029219855    2.7319728    5.2975198 -0.0028769388 
  500200    2.1234465 -0.00025559313    2.3208295     5.293399 -0.00032440313 
  500277    2.4075979 -0.00030290292    1.9207537    5.2910879 -0.00021907134 
Loop time of 6.53403 on 1 procs for 500000 steps with 15 atoms

Performance: 6611536.442 tau/day, 76522.413 timesteps/s
60.5% CPU use with 1 MPI tasks x 1 OpenMP threads

MPI task timing breakdown:
Section |  min time  |  avg time  |  max time  |%varavg| %total
---------------------------------------------------------------
Pair    | 0.5898     | 0.5898     | 0.5898     |   0.0 |  9.03
Bond    | 1.2732     | 1.2732     | 1.2732     |   0.0 | 19.49
Neigh   | 0.32254    | 0.32254    | 0.32254    |   0.0 |  4.94
Comm    | 0.22801    | 0.22801    | 0.22801    |   0.0 |  3.49
Output  | 2.7055     | 2.7055     | 2.7055     |   0.0 | 41.41
Modify  | 1.0231     | 1.0231     | 1.0231     |   0.0 | 15.66
Other   |            | 0.3919     |            |       |  6.00

Nlocal:    15 ave 15 max 15 min
Histogram: 1 0 0 0 0 0 0 0 0 0
Nghost:    0 ave 0 max 0 min
Histogram: 1 0 0 0 0 0 0 0 0 0
Neighs:    5 ave 5 max 5 min
Histogram: 1 0 0 0 0 0 0 0 0 0

Total # of neighbors = 5
Ave neighs/atom = 0.333333
Ave special neighs/atom = 5.2
Neighbor list builds = 15906
Dangerous builds = 0


# ----------------- Run Section -----------------

# The lines above define the system you want to simulate.
# What you do next is up to you.
# Typically a user would minimize and equilibrate
# the system using commands similar to the following:
#  ----   examples   ----
#
#  -- minimize --
# minimize 1.0e-5 1.0e-7 1000 10000
# (Note: Some fixes, for example "shake", interfere with the minimize command,
#        You can use the "unfix" command to disable them before minimization.)
#  -- declare time step for normal MD --
# timestep 1.0
#  -- run at constant pressure (Nose-Hoover)--
# fix   fxnpt all npt temp 300.0 300.0 100.0 iso 1.0 1.0 1000.0 drag 1.0
#  -- ALTERNATELY, run at constant volume (Nose-Hoover) --
# fix   fxnvt all nvt temp 300.0 300.0 500.0 tchain 1
#  -- ALTERNATELY, run at constant volume using Langevin dynamics. --
#  -- (This is good for sparse CG polymers in implicit solvent.)   --
# fix fxLAN all langevin 300.0 300.0 5000 48279
# fix fxNVE all nve  #(<--needed by fix langevin)
#  -- Now, finally run the simulation --
# run   50000
#  ---- (end of examples) ----

Total wall time: 0:00:06
