LAMMPS (5 Jun 2019)
OMP_NUM_THREADS environment is not set. Defaulting to 1 thread. (src/comm.cpp:88)
  using 1 OpenMP thread(s) per MPI task


# ----------------- Init Section -----------------

include "system.in.init"
        units lj
        atom_style angle
        pair_style hybrid lj/expand/twopiece 2.5 soft/shift 0.3 zero 1 morse 2.5
        bond_style hybrid harmonic
        angle_style hybrid harmonic
        special_bonds lj 0.0 0.0 0.0


# ----------------- Atom Definition Section -----------------

read_data "system.data"
  orthogonal box = (-20 -20 -20) to (20 20 20)
  1 by 1 by 1 MPI processor grid
  reading atoms ...
  1650 atoms
  scanning bonds ...
  1 = max bonds/atom
  scanning angles ...
  1 = max angles/atom
  reading bonds ...
  1600 bonds
  reading angles ...
  1450 angles
  2 = max # of 1-2 neighbors
  2 = max # of 1-3 neighbors
  4 = max # of 1-4 neighbors
  6 = max # of special neighbors
  special bonds CPU = 0.00454916 secs
  read_data CPU = 0.0212367 secs

# ----------------- Settings Section -----------------

include "system.in.settings"
       pair_coeff 2 2 lj/expand/twopiece 0.5 1 0.5 0.
        pair_coeff 3 3 lj/expand/twopiece 1.0 1 0.5 0.
        pair_coeff 4 4 lj/expand/twopiece 1.0 1 0.5 0.
        pair_coeff 3 4 lj/expand/twopiece 1.0 1 0.5 0.
        pair_coeff 2 3 lj/expand/twopiece 0.5 1 0.5 0.
        pair_coeff 2 4 lj/expand/twopiece 0.5 1 0.5 0.

        pair_coeff 5 5 soft/shift 1.5 0.2
pair_coeff 2 5 zero
pair_coeff 1 5 zero
pair_coeff 3 5 zero
pair_coeff 4 5 zero

        pair_coeff 8 8 lj/expand/twopiece 0.5 1 0.5 0.
pair_coeff 5 8 lj/expand/twopiece 0.5 1 0.5 0.
pair_coeff 2 8 zero
pair_coeff 1 8 morse 100 4 0.5
pair_coeff 3 8 zero
pair_coeff 4 8 zero
pair_coeff 6 8 zero
pair_coeff 7 8 zero

        pair_coeff 6 6 soft/shift 1.5 0.2
pair_coeff 2 6 zero
pair_coeff 1 6 zero
pair_coeff 3 6 zero
pair_coeff 4 6 zero
        pair_coeff 6 7 soft/shift 1.5 0.2

        pair_coeff 7 7 soft/shift 1.5 0.2
pair_coeff 2 7 zero
pair_coeff 1 7 zero
pair_coeff 3 7 zero
pair_coeff 4 7 zero

        pair_coeff 1 1 lj/expand/twopiece 0.5 1 0.8 0.
        pair_coeff 1 2 lj/expand/twopiece 0.5 1 0.8 0.
        pair_coeff 1 3 lj/expand/twopiece 0.5 1 0.8 0.
        pair_coeff 1 4 lj/expand/twopiece 0.5 1 0.8 0.


        bond_coeff 1 harmonic 1000 0.4
        bond_coeff 2 harmonic 1000 0.4
        bond_coeff 3 harmonic 1000 0.15

        angle_coeff 1 harmonic 20 180
        angle_coeff 2 harmonic 20 180
        angle_coeff 3 harmonic 20 180
        angle_coeff 4 harmonic 20 180


# ----------------- Run Section -----------------

include "system.in.run"
  compute bcomp all property/local btype batom1 batom2
  dump dxyz all atom 1000 poly.lammpstrj
  dump bdump all local 1000 bonddump.dump c_bcomp[1] c_bcomp[2] c_bcomp[3]

  thermo 200
  minimize 1.0e-6 1.0e-8 10000 100000
WARNING: Using 'neigh_modify every 1 delay 0 check yes' setting during minimization (src/min.cpp:168)
Neighbor list info ...
  update every 1 steps, delay 0 steps, check yes
  max neighbors/atom: 2000, page size: 100000
  master list distance cutoff = 2.8
  ghost atom cutoff = 2.8
  binsize = 1.4, bins = 29 29 29
  5 neighbor lists, perpetual/occasional/extra = 5 0 0
  (1) pair lj/expand/twopiece, perpetual, skip from (5)
      attributes: half, newton on
      pair build: skip
      stencil: none
      bin: none
  (2) pair soft/shift, perpetual, skip from (5)
      attributes: half, newton on
      pair build: skip
      stencil: none
      bin: none
  (3) pair zero, perpetual, skip from (5)
      attributes: half, newton on
      pair build: skip
      stencil: none
      bin: none
  (4) pair morse, perpetual, skip from (5)
      attributes: half, newton on
      pair build: skip
      stencil: none
      bin: none
  (5) neighbor class addition, perpetual
      attributes: half, newton on
      pair build: half/bin/newton
      stencil: half/bin/3d/newton
      bin: standard
Per MPI rank memory allocation (min/avg/max) = 10.29 | 10.29 | 10.29 Mbytes
Step Temp E_pair E_mol TotEng Press 
       0            0 -0.0048751927    661.87322    661.86835   -12.116949 
     200            0 -0.0056512701 0.00021432105 -0.0054369491 -0.00038382889 
     299            0 -0.017882993 7.2700533e-05 -0.017810292 -0.00017870115 
Loop time of 0.500578 on 1 procs for 299 steps with 1650 atoms

99.2% CPU use with 1 MPI tasks x 1 OpenMP threads

Minimization stats:
  Stopping criterion = energy tolerance
  Energy initial, next-to-last, final = 
         661.868347049   -0.0178102755134   -0.0178102921711
  Force two-norm initial, final = 97619.7 26.9054
  Force max component initial, final = 3958.08 3.4372
  Final line search alpha, max atom move = 0.00363516 0.0124948
  Iterations, force evaluations = 299 1235

MPI task timing breakdown:
Section |  min time  |  avg time  |  max time  |%varavg| %total
---------------------------------------------------------------
Pair    | 0.19525    | 0.19525    | 0.19525    |   0.0 | 39.00
Bond    | 0.20666    | 0.20666    | 0.20666    |   0.0 | 41.28
Neigh   | 0.061339   | 0.061339   | 0.061339   |   0.0 | 12.25
Comm    | 0.0016577  | 0.0016577  | 0.0016577  |   0.0 |  0.33
Output  | 0.00041665 | 0.00041665 | 0.00041665 |   0.0 |  0.08
Modify  | 0          | 0          | 0          |   0.0 |  0.00
Other   |            | 0.03526    |            |       |  7.04

Nlocal:    1650 ave 1650 max 1650 min
Histogram: 1 0 0 0 0 0 0 0 0 0
Nghost:    0 ave 0 max 0 min
Histogram: 1 0 0 0 0 0 0 0 0 0
Neighs:    5868 ave 5868 max 5868 min
Histogram: 1 0 0 0 0 0 0 0 0 0

Total # of neighbors = 5868
Ave neighs/atom = 3.55636
Ave special neighs/atom = 5.63636
Neighbor list builds = 45
Dangerous builds = 0
  timestep 0.001
  velocity all create 3.0 49840
  fix   fxnvt all nvt temp 3.0 3.0 500.0
  run   500000
Neighbor list info ...
  update every 1 steps, delay 10 steps, check yes
  max neighbors/atom: 2000, page size: 100000
  master list distance cutoff = 2.8
  ghost atom cutoff = 2.8
  binsize = 1.4, bins = 29 29 29
  5 neighbor lists, perpetual/occasional/extra = 5 0 0
  (1) pair lj/expand/twopiece, perpetual, skip from (5)
      attributes: half, newton on
      pair build: skip
      stencil: none
      bin: none
  (2) pair soft/shift, perpetual, skip from (5)
      attributes: half, newton on
      pair build: skip
      stencil: none
      bin: none
  (3) pair zero, perpetual, skip from (5)
      attributes: half, newton on
      pair build: skip
      stencil: none
      bin: none
  (4) pair morse, perpetual, skip from (5)
      attributes: half, newton on
      pair build: skip
      stencil: none
      bin: none
  (5) neighbor class addition, perpetual
      attributes: half, newton on
      pair build: half/bin/newton
      stencil: half/bin/3d/newton
      bin: standard
Per MPI rank memory allocation (min/avg/max) = 10.28 | 10.28 | 10.28 Mbytes
Step Temp E_pair E_mol TotEng Press 
     299            3 -0.017882993 7.2700533e-05    4.4794624  0.077118174 
     400    1.7182975 -0.012829958       1.9233    4.4863541  -0.02577172 
     600    1.7175113 -0.016829055    1.9286336    4.4865102 -0.0043455979 
     800    1.6995845 -0.030182521    1.9696205    4.4872696  0.036422403 
    1000    1.6260303  -0.04725405    2.0968362    4.4871494  0.011835691 
    1200    1.6869007 -0.054088216    2.0129858    4.4877151 -0.001912598 
    1400    1.6086106 -0.068498422    2.1441623    4.4871174 0.0093671503 
    1600    1.6539872 -0.081273475    2.0890471    4.4872508     0.010378 
    1800    1.6414306 -0.091762956    2.1185114    4.4874021 -0.0040489894 
    2000    1.6010467 -0.075200782    2.1626711     4.487585 0.0045220326 
    2200    1.5809137 -0.079607229    2.1972701    4.4875963 -0.0015964695 
    2400    1.5700719 -0.076453211    2.2115952    4.4888225 -0.0099680978 
    2600     1.607742 -0.086593679     2.165131    4.4886887 0.0012359567 
    2800    1.6345833 -0.083827419    2.1223805    4.4889421  0.013273515 
    3000    1.5863981 -0.082384485    2.1933204    4.4890908 -0.0016448141 
    3200    1.5918515 -0.074446382    2.1774077    4.4892915 0.0040928441 
    3400     1.587301 -0.068933207    2.1790646      4.48964 0.0017558043 
    3600    1.6020839 -0.062809216    2.1505781    4.4894383  0.003571408 
    3800    1.6442598 -0.067428956    2.0919849    4.4894509 -0.00030712173 
    4000    1.5989008 -0.065882459    2.1584725    4.4894877 -0.00053023497 
    4200    1.5782512 -0.062641947    2.1863335    4.4896336 0.0028027706 
    4400    1.5709551 -0.067565433    2.2014591    4.4888981 -0.0038684874 
    4600    1.6263088 -0.053623125    2.1038101    4.4881718 0.0061006668 
    4800    1.5830337 -0.056428575    2.1718497    4.4885325 -0.0024998246 
    5000     1.642194 -0.050267865    2.0772356    4.4887658 -0.00024435562 
    5200    1.5598691 -0.057781469    2.2081479     4.488752 -0.0010588942 
    5400    1.6149764  -0.05430361    2.1224217    4.4891145 0.0070589474 
    5600    1.6093623 -0.054297586       2.1299    4.4881828 0.0017173175 
    5800    1.5863448 -0.055295551    2.1667821    4.4895616 -0.004317764 
    6000    1.6142557 -0.061595794    2.1303054    4.4886257 0.0070183289 
    6200    1.5953837 -0.058872373    2.1560941    4.4888468 0.00043691763 
    6400    1.6227093  -0.05727844    2.1138669    4.4891772 0.0046943481 
    6600    1.6117431 -0.056058027    2.1285259    4.4886173 -0.00093612184 
    6800    1.6064356 -0.057983357    2.1383045    4.4885142 -0.0031431216 
    7000    1.5962243 -0.052248432    2.1479709    4.4886077 0.0037316905 
    7200    1.6062702 -0.050862408    2.1318611    4.4889437 -0.0021789545 
    7400    1.5760759 -0.053158889     2.179599    4.4891212 0.0029292181 
    7600    1.6128025 -0.054921048    2.1265052    4.4893217 0.0056977414 
    7800    1.6163386 -0.055504721    2.1223765    4.4899103 0.0073322019 
    8000    1.5945189 -0.047029427    2.1460959    4.4893952 0.00094063471 
    8200    1.5855622 -0.036435186    2.1487012    4.4891678 -0.00059733018 
    8400    1.5589742 -0.034100216    2.1866124    4.4895563 0.0017455391 
    8600    1.5952026 -0.043235494    2.1414137    4.4895319 0.0032270981 
    8800    1.5941854 -0.044793754    2.1446868    4.4897219 0.0017155043 
    9000    1.6086507 -0.044835921    2.1226867    4.4893644 0.0046449388 
    9200    1.6197336  -0.04834522    2.1095276    4.4893103 -0.00038739954 
    9400    1.6083918 -0.048329605    2.1261896    4.4889855 0.0008818871 
    9600    1.5896056 -0.040528528    2.1465265    4.4889612 0.0040477975 
    9800    1.6016717 -0.035976693    2.1237766    4.4888514 -0.00083120558 
   10000    1.6060235 -0.039497805    2.1207875     4.488865  0.003455585 
   10200    1.5650838 -0.038525184    2.1812879    4.4889656  0.003789535 
   10400    1.5624334 -0.041527897    2.1884183    4.4891201 0.0017612322 
   10600    1.5850149 -0.035262934     2.148235    4.4890534 -0.0019810785 
   10800    1.5764737 -0.036843821    2.1624689    4.4889025 -0.0013804363 
   11000    1.5943792 -0.036245867     2.135152    4.4890255 -0.0017922958 
   11200    1.6084844 -0.030526121    2.1085536    4.4892918 0.0080097357 
   11400    1.6312946 -0.035506774    2.0789617    4.4889139 0.00036670725 
   11600     1.582575 -0.044971831    2.1616032    4.4890552 0.0038571153 
   11800    1.6158369 -0.050886093    2.1176025    4.4890028 0.0096314693 
   12000    1.5838579 -0.044129943     2.158782    4.4889991 -8.3378336e-05 
   12200    1.5942255 -0.043639353    2.1428747    4.4891243 0.0028295087 
   12400    1.6185767 -0.043952109     2.106457    4.4888985 0.0047487107 
   12600    1.5788287 -0.039879272    2.1630184    4.4899469 -0.0038282852 
   12800    1.5999507 -0.034303948    2.1261969    4.4903645 -0.0018082387 
   13000    1.6129174  -0.03548997    2.1077767    4.4901966 -0.0035536566 
   13200    1.5649763 -0.035276134    2.1805634    4.4913291 0.0025107838 
   13400    1.6168495 -0.035403815    2.1019633    4.4903638 0.0022489277 
   13600    1.5960117 -0.032312358    2.1296948    4.4899491 0.0035863979 
   13800    1.5724963 -0.031758743    2.1643833    4.4899395 0.00059547982 
   14000    1.6163871 -0.030803362     2.096786     4.489094 0.0034795768 
   14200    1.6309879 -0.031312916    2.0759187    4.4896048 0.0072362923 
   14400    1.6011644 -0.031044545    2.1207414    4.4899878 0.0009702081 
   14600    1.6201625 -0.029378114    2.0906247    4.4900174  0.001763182 
   14800    1.6355324 -0.026795224     2.065371    4.4903876 0.0017988961 
   15000    1.5804131  -0.02413907    2.1454882     4.490532 0.0015038492 
   15200    1.6060823 -0.028176672    2.1107805    4.4902672 0.0034546716 
   15400    1.6230719 -0.031213023    2.0884594    4.4903786 -0.0033278349 
   15600    1.5988923 -0.023374626    2.1170308     4.490541 0.00064972912 
   15800    1.5807443 -0.024058122     2.145154    4.4907753  0.006918036 
   16000    1.5895918 -0.023496284    2.1313419    4.4907883 0.00013417582 
   16200    1.6718904 -0.023560755    2.0075928    4.4903477 0.0061499456 
   16400    1.6182586 -0.025514839    2.0902767    4.4906787 -0.0016274388 
   16600    1.6142731 -0.025506646    2.0964117    4.4908472 0.0014828977 
   16800     1.598906 -0.023427063     2.118106    4.4915844 0.0056537368 
   17000    1.5974832 -0.021952906    2.1188365    4.4916562 0.0026465021 
   17200    1.5867021 -0.020325214    2.1342097    4.4924952 -0.0016191274 
   17400    1.5608625 -0.020135728    2.1724105    4.4921496 0.00035248791 
   17600     1.568879 -0.024695157     2.165386    4.4925831 -0.0065345313 
   17800    1.5815738 -0.023890263    2.1456973    4.4927299 -0.0024145012 
   18000    1.6018753 -0.021420446    2.1138032    4.4937394 -0.00020912011 
   18200      1.59159 -0.019508161    2.1267422    4.4931722 -0.0025255864 
   18400    1.5885943 -0.018329021    2.1296037    4.4927219 0.00086468598 
   18600    1.5698197 -0.017499203     2.157287    4.4930903 0.0043603721 
   18800    1.5415771  -0.01380945    2.1957338    4.4928887 9.9246488e-05 
   19000    1.5852448  -0.01629347    2.1328669    4.4929995 -0.0050539886 
   19200    1.6011772 -0.016954116    2.1103652    4.4937213 0.0015292558 
   19400    1.5855692 -0.018218711    2.1347896    4.4934833 0.0018221648 
   19600    1.6039081 -0.017428293     2.106227    4.4932028 0.0037093896 
   19800    1.6214744 -0.017533098    2.0809023    4.4941067 0.0063465712 
   20000    1.5619278 -0.015442682    2.1682903    4.4943194 -0.001810097 
   20200     1.570284 -0.012955513     2.153266    4.4943091 -0.0038642879 
   20400    1.5739694 -0.013238947    2.1481747     4.494459 0.0027480406 
   20600     1.596463 -0.013057751    2.1140499    4.4942354 0.00027224718 
   20800    1.5781643 -0.011568513    2.1410389    4.4952821 0.0035324005 
   21000     1.587992 -0.011740928    2.1262536     4.495057 0.0028154416 
   21200    1.6286588 -0.012742695    2.0657964    4.4945613 0.0080725622 
   21400    1.5758286 -0.012850246    2.1456099      4.49507 -0.0016018913 
   21600    1.5999968 -0.0095029364    2.1059247    4.4949623 -0.0049692676 
   21800    1.6057683 -0.0093587046    2.0967662    4.4946002 0.00097906628 
   22000    1.5969077  -0.01151797    2.1129296    4.4953214 0.00064849341 
   22200    1.5549735 -0.012890709    2.1778941      4.49605 -0.0059097199 
   22400    1.5762234 -0.012493849    2.1450507    4.4954591 0.0019011927 
   22600    1.5889673 -0.014125583    2.1277123    4.4955931 0.0032718383 
   22800    1.6025459 -0.012474823    2.1064949    4.4963821 0.0042532113 
   23000    1.5606792 -0.013493648    2.1698354    4.4959417 0.0020906624 
   23200    1.5822847 -0.013503816    2.1374891    4.4959739 -0.00017088755 
   23400    1.5436044 -0.013902765     2.196335    4.4964356 -0.0042506126 
   23600    1.6115293 -0.015266021    2.0961502     4.496713 0.0084236719 
   23800    1.6157513 -0.013079714    2.0870804    4.4961589 -0.0017670474 
   24000    1.5993844 -0.010801274    2.1096636    4.4964849 0.0077110475 
   24200    1.5922949 -0.012672788    2.1227384    4.4970603 0.00062940618 
   24400    1.6014331 -0.011975847    2.1079332    4.4966513 0.0040915962 
   24600    1.5519224 -0.014496856    2.1849726    4.4969486 -0.0021309123 
   24800    1.5705039 -0.013289289    2.1560617    4.4971005 0.0063606816 
   25000      1.54967 -0.010069103    2.1839727    4.4969999 -0.0052711576 
   25200    1.5644436 -0.0099674741    2.1617173     4.496993 0.00099523872 
   25400    1.5851763 -0.011884991    2.1324503    4.4968887 -0.0021512609 
   25600      1.57842 -0.013584675    2.1442647     4.496875 -0.0022893187 
   25800    1.5637022 -0.016262511    2.1692433    4.4971126 0.0068874825 
   26000    1.5773047 -0.014103143    2.1466072    4.4970273 0.0074006711 
   26200    1.5697565 -0.013582282    2.1569861    4.4966115 -0.011169016 
   26400     1.619656 -0.010047816    2.0785936    4.4965574  0.009114639 
   26600    1.5945402 -0.013211746    2.1195638    4.4967128 -7.5328976e-05 
   26800    1.5812865 -0.014742323    2.1405882    4.4963382 -0.00030680897 
   27000     1.559126 -0.011340179    2.1706609    4.4965924 -0.0034209312 
   27200    1.6086974 -0.013820653    2.0989935    4.4967565 0.0021294442 
   27400    1.5959265 -0.011437046    2.1161509    4.4971527 -0.0032583809 
   27600    1.5692777  -0.01038356    2.1555521    4.4976585 -0.001089228 
   27800    1.5919743 -0.0057228517    2.1165591    4.4973504 0.0025708258 
   28000    1.5862584 -0.009297564     2.128904     4.497552 -0.004150787 
   28200    1.5928616  -0.00553471    2.1153766    4.4976862 -0.00086797888 
   28400    1.5780198 -0.0079490543     2.139842    4.4974881 0.0022739891 
   28600    1.5804877 -0.0099752466    2.1382483    4.4975678 0.0029815221 
   28800    1.5764803 -0.0068527431    2.1408872    4.4973217  0.010249007 
   29000    1.5574437 -0.0060271823    2.1687515     4.497474 -0.002016268 
   29200    1.5625505 -0.0057332986    2.1607406    4.4974126 -0.00076804935 
   29400    1.5778765 -0.0066949324    2.1386916     4.497377 -0.0049223739 
   29600     1.571083 -0.007533478    2.1497394    4.4974022 -0.00039225919 
   29800    1.5647537 -0.0061286983    2.1574843    4.4970637 0.0013802053 
   30000    1.5805418 -0.0081659506    2.1351843    4.4963942 0.0025531873 
   30200    1.5515001 -0.0074959205    2.1778534    4.4961972 -0.0010318205 
   30400    1.5768729 -0.0066822859    2.1389721    4.4961656 0.00044883988 
   30600    1.5969738 -0.0040641675    2.1061537    4.4960985 0.0046317363 
   30800    1.6091273 -0.0044020817     2.088378    4.4962041 0.0039485221 
   31000    1.5954092 -0.0069238536    2.1115914    4.4963309 3.8504412e-05 
   31200    1.6427251 -0.0080153324    2.0420013    4.4965802 0.0035850455 
   31400    1.5848003 -0.0090743448    2.1298192    4.4965045 -0.00032845511 
   31600    1.6110742 -0.0074500201    2.0877956    4.4954923 0.0055661071 
   31800    1.5749261 -0.0088495147      2.14309     4.495198 -0.003680647 
   32000    1.5566484 -0.0068302754    2.1686905    4.4954176 0.0005244548 
   32200    1.6273335 -0.0091489682    2.0644703    4.4948422 -0.00079469362 
   32400    1.5919795 -0.0056157374    2.1136703    4.4945766  0.004931201 
   32600    1.5430923 -0.0073649193    2.1895205    4.4953913 0.0011333288 
   32800    1.5958309 -0.0064906214    2.1091092    4.4949141 0.0041920925 
   33000    1.5866581 -0.0060047603    2.1223095    4.4948495 0.0020946868 
   33200    1.5403769 -0.0021690669    2.1884925    4.4954884 -0.0040684531 
   33400    1.6079603 -0.0042693298     2.088201    4.4944104 -0.0018563911 
   33600    1.6069344 -0.0061740554    2.0917995    4.4945662  0.007806739 
   33800    1.5791778 -0.0063334794     2.134699    4.4956966 0.0020002137 
   34000    1.6038064 -0.0077116973    2.0983202    4.4948601 0.0046126266 
   34200    1.5749443 -0.0078632584    2.1418231    4.4949446 -0.0027744061 
   34400    1.5750377 -0.0090180642    2.1431792    4.4952858 0.0036737403 
   34600    1.5911942 -0.0078942448    2.1170824     4.494533 0.0032434498 
   34800    1.5885207 -0.0079262944    2.1213646    4.4947753 0.0053829841 
   35000    1.6067531 -0.006643272    2.0932835    4.4953092 -0.0030456072 
   35200    1.6216227 -0.007060892    2.0713073    4.4952063 0.0012057168 
   35400    1.5784702 -0.0099853568    2.1387323    4.4950172 -0.0042472254 
   35600    1.5962789 -0.008065262    2.1100371    4.4949391  0.009326954 
   35800    1.5541319 -0.0080931842    2.1737821     4.495474 -0.0075309802 
   36000    1.5924857 -0.0085793812    2.1166918    4.4953933 -0.0066046007 
   36200    1.6073741 -0.0067297138    2.0923388    4.4952089 0.0071498849 
   36400    1.5791366 -0.0068885119     2.134802    4.4951828 0.0044543237 
   36600    1.5923164 -0.0085228131    2.1169849    4.4954892 -0.0025029202 
   36800    1.5855134 -0.0097771518    2.1285891    4.4956407 -0.00028923755 
   37000    1.5839551 -0.0092731072    2.1302329    4.4954525 0.0018770568 
   37200    1.6110752 -0.0088103971    2.0892152     4.495553 0.00016537398 
   37400    1.5533105 -0.0065721981    2.1741477    4.4961291 -0.0079647564 
   37600    1.5774008 -0.006061008    2.1378655    4.4964717 0.0015356931 
   37800    1.5685597 -0.004916889    2.1500694    4.4965661 0.0012001735 
   38000    1.5675329 -0.0083980113    2.1553076    4.4967839 0.0069361089 
   38200    1.5694338 -0.0058994114    2.1506279    4.4974524 0.0036966282 
   38400     1.574295 -0.009821408     2.148237    4.4984269 -0.002771112 
   38600    1.6058777 -0.0089824395     2.099936    4.4983102 0.00050261983 
   38800    1.5585791 -0.0089778631     2.170436      4.49791 -0.00096252376 
   39000    1.6179441 -0.0086268389    2.0807536    4.4975721 0.0051972862 
   39200    1.5767776 -0.008915797    2.1429751    4.4977924 0.0041794045 
   39400    1.6049578  -0.00509815    2.0965753    4.4974548 -0.0003234054 
   39600    1.5792857 -0.0059421113     2.136309    4.4978598 -0.002290297 
   39800    1.5837652 -0.0039122101    2.1279187    4.4982145  0.007641564 
   40000    1.5979994 -0.0054949703    2.1078249    4.4978763 0.0032165389 
   40200    1.6217314 -0.007708294    2.0742477    4.4976622  0.006315555 
   40400    1.5953102 -0.0073769785    2.1141893    4.4983274 0.0085674933 
   40600    1.5816736 -0.0084904756    2.1359349     4.498517 -0.0018263607 
   40800    1.5614443 -0.0053926142    2.1631909    4.4985452 0.0019231707 
   41000     1.610146 -0.0063272547    2.0909043    4.4983322 0.0023628307 
   41200    1.6289303 -0.0068800708    2.0627781    4.4978126 0.0039019901 
   41400    1.6203958 -0.0081833952    2.0778698     4.498807 0.0034514547 
   41600    1.5907558 -0.0091766814    2.1235578    4.4990688 0.00013616876 
   41800    1.5860246 -0.009622875    2.1316032    4.4995754 0.0050756642 
   42000    1.5758072 -0.0054548771    2.1430414    4.4998648  0.004251804 
   42200    1.5682603 -0.0054891432    2.1539528    4.4994284 0.0020195657 
   42400    1.6086344 -0.0056820723    2.0936158    4.4994229 -0.0026446513 
   42600    1.6385779 -0.0073635213      2.05016    4.4991737 0.0077414393 
   42800    1.5996252 -0.0072441483    2.1093657    4.5001052 0.0050898657 
   43000    1.5973295 -0.010663784    2.1158153    4.4996936 0.0020120167 
   43200    1.5717057 -0.0094455607    2.1533057      4.49999  0.003465283 
   43400    1.6022394 -0.0086738358     2.106804    4.5000327 0.0024317312 
   43600     1.576801 -0.0093723981    2.1459135    4.5003091 -0.0032303243 
   43800    1.5857078 -0.0097561378    2.1329195    4.5002835 0.0086728935 
   44000     1.576143 -0.0086661769    2.1459891    4.5001046 0.0013546781 
   44200    1.5699242 -0.0064341412    2.1534694    4.5004944 0.0006246546 
   44400    1.5943737 -0.0055750849    2.1158358    4.5003718  0.006776085 
   44600    1.5704416 -0.0079379533    2.1543638    4.5006605 -0.00060061843 
   44800    1.5958562 -0.0077685701    2.1159236    4.5004886 0.0038935221 
   45000    1.5943258 -0.0076125303    2.1181596    4.5005863  -0.00355695 
   45200    1.5679526 -0.0089979034    2.1592884     4.500794 -0.0014362279 
   45400    1.5774395 -0.010211851    2.1462119    4.5007253 -0.0032970214 
   45600    1.5947567 -0.0077070628    2.1182508     4.501229 0.0069823536 
   45800    1.5923137 -0.0063199069    2.1199855    4.5006885 0.00014295193 
   46000    1.5914787 -0.0095752511    2.1247176    4.5009136 0.0059993414 
   46200    1.5811335 -0.009683718    2.1402593    4.5008384 0.00056751648 
   46400    1.6113507 -0.0096005737    2.0946925     4.500653 0.0055394151 
   46600      1.56849 -0.0093772416    2.1591143    4.5010461 0.0060161893 
   46800    1.5654161 -0.0088405431    2.1628282    4.5006888 -0.001415116 
   47000    1.5978534 -0.011492782    2.1171836    4.5010183 0.0014256227 
   47200    1.5923005 -0.010314581    2.1237086    4.5003972 0.0050203986 
   47400    1.5758887 -0.0078180605    2.1464299    4.5010123 0.0038385576 
   47600    1.5757714 -0.0083816234    2.1468393    4.5006822 0.0062651561 
   47800    1.5671963 -0.0087236359    2.1599274    4.5005735 0.0013973132 
   48000    1.6046571 -0.0082754339    2.1030704    4.5003219 0.0010289996 
   48200    1.5504297 -0.0075986623    2.1838544    4.5004908 -0.0068035813 
   48400     1.581809 -0.011399878    2.1410044    4.5008799 0.0061504065 
   48600    1.5829674  -0.01396062    2.1417796     4.500831 0.0091261275 
   48800    1.5979227 -0.014465255    2.1207412    4.5017073 0.0076171898 
   49000     1.601931 -0.011584128    2.1121022    4.5019582 0.0049604586 
   49200    1.6033852 -0.0095657053    2.1080472    4.5021016  0.005268191 
   49400    1.5628297 -0.011701555    2.1711065    4.5022288 0.0047098677 
   49600    1.6124987 -0.010464579    2.0953231    4.5021406 0.0022580294 
   49800    1.5893405 -0.0096874984     2.129287    4.5021654 0.0026301625 
   50000    1.6318338  -0.00908514    2.0652146    4.5023966 0.0081612948 
   50200    1.6080177 -0.0099483437    2.1017542    4.5023706 0.0046137175 
   50400    1.6347179 -0.0095116421    2.0611874    4.5022666 0.0090478296 
   50600    1.6149877 -0.010413189    2.0919026    4.5025028 0.00013788583 
   50800    1.5965213 -0.010843039    2.1200477    4.5025352 0.0066016948 
   51000    1.5767762 -0.011240239    2.1503101    4.5028008 -0.0011879504 
   51200    1.5874592 -0.011473925     2.134435    4.5027067 0.0027750766 
   51400    1.5988787 -0.010521068     2.117239    4.5035825 0.0041818909 
   51600    1.5633205 -0.0097380592    2.1701402    4.5039617 -0.0013860562 
   51800    1.6166424 -0.014242406    2.0944863    4.5037379 0.0031960002 
   52000     1.595682 -0.010533965    2.1227102    4.5042486 0.0014746483 
   52200     1.576083 -0.0096508358    2.1512705    4.5043115 -0.0014097044 
   52400    1.6162551 -0.010189597    2.0916977    4.5044214 -0.00050668964 
   52600    1.6346675 -0.0093486764    2.0636683    4.5048348  0.010385301 
   52800    1.5779423 -0.0091086898    2.1494699    4.5058402 0.0067422551 
   53000    1.5955802 -0.0073633856    2.1206947     4.505251 -0.0020638354 
   53200    1.5697077 -0.0096579557    2.1625119    4.5059885 0.0026179758 
   53400    1.5722964 -0.0092629877    2.1582828    4.5060351 0.0026725428 
   53600     1.602452 -0.0073781588     2.110922    4.5057651 0.0037667157 
   53800    1.5770787 -0.0063638123    2.1485316    4.5063522 0.0024102179 
   54000    1.6176701 -0.0055377625     2.086584    4.5060808 0.0038662872 
   54200    1.6043054 -0.007928046    2.1089506    4.5060223 0.0022968511 
   54400    1.5904919 -0.0092076228     2.131259    4.5063433 0.0075949568 
   54600    1.5760058 -0.0069907421    2.1506465    4.5062317   0.00438671 
   54800     1.622562 -0.0062344016    2.0794987    4.5056322 0.0034806386 
   55000    1.5885238 -0.0054914313    2.1303131    4.5061633 -0.00080596266 
   55200    1.5718002 -0.0063804834    2.1570492    4.5069401  0.004545616 
   55400    1.5631388 -0.0087494283    2.1725766    4.5071142 0.0005017423 
   55600    1.5630697 -0.0083409654    2.1724969    4.5073395  0.004233113 
   55800    1.5946611 -0.0051194103     2.121892    4.5073145 0.0025102984 
   56000     1.598242 -0.010137958    2.1216733    4.5074454 -0.011352742 
   56200    1.5871642 -0.0058304932    2.1342797    4.5077526 -0.0019025457 
   56400    1.6003844 -0.0047335384    2.1132878     4.507676 0.0038971357 
   56600    1.5888409 -0.0087943694    2.1347451    4.5077676 0.0044716723 
   56800    1.6086184 -0.0093300085     2.105398    4.5075332 0.0055193899 
   57000    1.5980505 -0.0082195713    2.1206383    4.5080416 0.0046579784 
   57200    1.5638972 -0.0087975353    2.1728247    4.5084513 -0.0041099661 
   57400    1.5849047 -0.010736675    2.1433723    4.5085519 0.0025696248 
   57600     1.582013 -0.010611403    2.1476481    4.5086179 0.0072888904 
   57800    1.5752437 -0.009077667    2.1560294    4.5083853 0.00093132556 
   58000     1.599503 -0.0073423755    2.1182259    4.5086839  0.004527796 
   58200    1.6015184 -0.0069216503    2.1145999    4.5084999 -0.0041852595 
   58400    1.5806548 -0.0068959666    2.1461024    4.5087518 -0.00038027383 
   58600    1.5756293 -0.0077850741    2.1551367    4.5093632 0.0060476951 
   58800    1.5865766 -0.010189011     2.140714    4.5089476 -0.0043549748 
   59000    1.6461859 -0.0075306084    2.0480631    4.5083148  0.010423914 
   59200    1.5970637 -0.0085882405    2.1230191    4.5085745 -0.0015264447 
   59400    1.6041733 -0.011037986    2.1151628    4.5089264 0.0045527086 
   59600    1.6252993 -0.0077817559    2.0803957    4.5090853 0.0016044049 
   59800    1.5890528 -0.0078409591    2.1349925    4.5092861 0.0042678767 
   60000    1.5832785 -0.006091898    2.1415216    4.5089081 -0.0033369813 
   60200      1.56608 -0.011979683    2.1736538    4.5093705 0.00024028426 
   60400    1.5813415 -0.011072875    2.1501534    4.5096552 0.0047159505 
   60600    1.5525942 -0.010209608     2.193031    4.5103012 0.0019381391 
   60800    1.6081721 -0.010248866    2.1093691    4.5099165 -0.0030423046 
   61000    1.5906578 -0.0070663818    2.1328424    4.5103166 -0.0024274444 
   61200    1.5869049 -0.0074199259    2.1383728    4.5098677 0.00065092226 
   61400    1.6191403  -0.00723443    2.0900438    4.5100479 0.0043587845 
   61600    1.5698877 -0.0073168999    2.1643644    4.5104518 0.0014290772 
   61800    1.5877583 -0.0092136977    2.1387289    4.5097093 -0.0027772987 
   62000    1.5771281 -0.0098922457    2.1565607    4.5109269 0.0088246313 
   62200    1.5863068 -0.012874798    2.1454912    4.5106345 0.0003968534 
   62400    1.5761955 -0.010447016    2.1581192    4.5105326 -0.0027109426 
   62600    1.5762053 -0.0079100143    2.1560388    4.5110038 -0.0029407669 
   62800    1.5756107 -0.0079553718    2.1568809    4.5109092 0.0059197531 
   63000    1.5900404 -0.0091521303    2.1369075    4.5113705 -0.0018247307 
   63200    1.5832828 -0.0047249631    2.1432039    4.5119638 -0.0010899603 
   63400    1.5811277 -0.0063538478    2.1481376    4.5120379 -0.0025868615 
   63600    1.5999294 -0.0091602235    2.1223874    4.5116668 -0.0031002857 
   63800    1.5740523 -0.0091056329    2.1614039    4.5119458 0.00078549238 
   64000    1.5747249 -0.010499703    2.1618658    4.5120218 -0.002262903 
   64200    1.5738324 -0.0084314779    2.1612911    4.5121774 -0.0049019652 
   64400    1.6062215 -0.0082520821     2.112412     4.512032 0.0060796341 
   64600    1.5672138 -0.0085004109    2.1712714     4.512167 0.0051598208 
   64800    1.5878817 -0.0089204612    2.1410803    4.5125388 0.00057193825 
   65000     1.631854 -0.0037438235    2.0699788    4.5125325 0.0051075804 
   65200    1.5562936 -0.0053707607    2.1855908    4.5132456 0.0041995132 
   65400    1.6137736 -0.011713211     2.105711    4.5131912 0.0069364224 
   65600    1.5656754 -0.0096637345    2.1759481    4.5133741 -0.00024672201 
   65800    1.5800796 -0.0074128356    2.1522329    4.5135029 -0.004748856 
   66000    1.5778317  -0.00924212    2.1575301    4.5136012 -0.00039839312 
   66200    1.5984504 -0.0093857471    2.1265737    4.5134104 0.0083574337 
   66400    1.5575493 -0.0078706255     2.186996    4.5140333 0.0014098668 
   66600    1.5858758 -0.0088083876    2.1451391    4.5137027 -0.0037823039 
   66800    1.5965934 -0.010127789    2.1305233    4.5138342 -0.005048054 
   67000    1.5602101 -0.006407363    2.1815062    4.5139956  0.001339969 
   67200    1.6495094 -0.007115446    2.0481935    4.5138425 0.0024380368 
   67400    1.5422571 -0.0078754324    2.2106905    4.5147987 -1.597852e-05 
   67600    1.5775063 -0.0065733924    2.1570882    4.5153402 0.0044727273 
   67800    1.6375958 -0.011246228    2.0705638    4.5142226 0.0060341018 
   68000    1.6005899 -0.0068214466    2.1226625    4.5152707 0.0067232975 
   68200    1.5886607 -0.011792929     2.144838    4.5145919 -0.0013418747 
   68400    1.5824284 -0.014420116    2.1571169    4.5149008 0.0066866161 
   68600    1.5996409 -0.014857534    2.1314201    4.5145698 -0.0012147525 
   68800    1.5828378 -0.0098846484    2.1519977    4.5149308 -7.7636717e-05 
   69000    1.6369364 -0.0079872716    2.0689695    4.5148988 0.0055435008 
   69200    1.5831894 -0.010989486    2.1527508    4.5151062 -0.0056373399 
   69400    1.5806446 -0.010725808    2.1569341    4.5157383 0.0007341613 
   69600    1.5951214 -0.008347286    2.1323684     4.515253 0.0084064822 
   69800    1.5808805 -0.006351871    2.1517484      4.51528 0.0018746965 
   70000    1.5731795 -0.008467577    2.1656173    4.5154887 -0.0054337855 
   70200    1.6419745 -0.0061947349    2.0600784    4.5153527  0.011753377 
   70400    1.6160772 -0.0072510493    2.1004836    4.5158791 0.00028155987 
   70600    1.6195679 -0.0070660249    2.0947091    4.5155227  0.001183536 
   70800    1.6070732 -0.0072344118    2.1138905    4.5158048 0.0014856775 
   71000    1.5808488 -0.0046268626    2.1507388     4.515948 -0.0021240621 
   71200     1.584519 -0.0045605872    2.1455724    4.5163498 -0.0040009735 
   71400    1.5961432 -0.0098961198    2.1340627    4.5169303 0.0068332468 
   71600     1.551186 -0.010791543    2.2020396    4.5166169 0.0035545914 
   71800    1.5734793 -0.012119479    2.1702734    4.5169425 0.0078799071 
   72000    1.5636795 -0.010096123    2.1831616    4.5171632 0.0024531757 
   72200     1.608188 -0.0072652307    2.1133229    4.5168776 0.0042757481 
   72400    1.6160608 -0.0066519033    2.1012628     4.517233 0.0023537056 
   72600    1.6149598 -0.0055965011    2.1013918    4.5167669 0.0041416176 
   72800    1.5960586 -0.0083564379    2.1327867    4.5170672 0.0066563633 
   73000    1.5417537 -0.0096099206    2.2161343    4.5177533 -0.0063143215 
   73200     1.585474 -0.0025884699    2.1439392    4.5181204 0.0070071209 
   73400     1.596176 -0.007163644    2.1317826    4.5174318  0.013373806 
   73600    1.5944799 -0.0084465006    2.1363144    4.5181383 -0.0025318636 
   73800      1.61605 -0.0089853488     2.104451    4.5180714 0.0023180378 
   74000    1.5605399 -0.0072212738    2.1865488    4.5187186 -0.0003959339 
   74200    1.6060441 -0.0092078466    2.1199358    4.5183341 0.0034345445 
   74400    1.5759708 -0.0063723415    2.1624458    4.5185969 -0.0033519174 
   74600    1.5775199 -0.0062283277    2.1597079    4.5183254 -0.0028655584 
   74800    1.6321071 -0.0063140064    2.0776813    4.5180442 0.0046964842 
   75000    1.6207041 -0.0095309605    2.0982346    4.5182864 0.0044588042 
   75200    1.5734802 -0.0094952324    2.1692301    4.5185248 0.0013474425 
   75400    1.5645267 -0.0088522751    2.1823548    4.5188703 0.0018035555 
   75600    1.6104862 -0.0073267087    2.1116959    4.5186345 0.0016098834 
   75800    1.6009084 -0.0071377464    2.1262854    4.5190548 0.0012563231 
   76000    1.6103378 -0.006764815    2.1117834    4.5190614 0.0009775918 
   76200    1.5817568 -0.0070615918    2.1554398    4.5195755 0.0026697229 
   76400    1.5957551 -0.0060092719    2.1330244    4.5191971 -0.0047048591 
   76600    1.5902774 -0.0076109108    2.1435382    4.5198977 0.0011718868 
   76800    1.5498466 -0.0071880917    2.2036572    4.5198301 -0.0034091231 
   77000    1.5900534 -0.0057878543    2.1420788    4.5199255 -0.0010212907 
   77200    1.5426482 -0.0051003607    2.2129736    4.5204432 -0.010474727 
   77400    1.5962903 -0.0056336139    2.1331103    4.5204609  0.012363108 
   77600    1.5763337 -0.0082706418    2.1652279    4.5200248 0.00024693359 
   77800    1.5631055 -0.0076474073     2.184802    4.5203919 0.0014817585 
   78000    1.5973774 -0.0076654364    2.1332559    4.5202044 0.0062893086 
   78200    1.5368223 -0.0067076666    2.2238768    4.5210054 0.0012891429 
   78400    1.5750105 -0.0053762509     2.165427    4.5211348 0.0023525613 
   78600    1.5763507 -0.0068660556     2.164474     4.520701 -0.0023884048 
   78800    1.5666828 -0.0080266836    2.1801975    4.5207707 -0.0020311255 
   79000    1.6068164 -0.0070792801    2.1197227    4.5214073 -0.0012454652 
   79200      1.61701 -0.0068771094     2.103654    4.5208219 0.0059542476 
   79400    1.6216357 -0.006799885     2.096613    4.5207925 0.0062860997 
   79600     1.603175 -0.0070778912    2.1250481    4.5212753 -0.00019113114 
   79800    1.5906349 -0.0075032425    2.1440038    4.5210068 -0.00058956245 
   80000    1.5952508 -0.0080358858    2.1375176    4.5209078 0.0049540077 
   80200    1.5737311 -0.006706121    2.1686478    4.5211076 -0.0017139758 
   80400    1.6004509 -0.0062244408     2.128356    4.5213529 0.0019129392 
   80600    1.6199837 -0.0035606394    2.0963777    4.5213199 8.2124953e-05 
   80800      1.60379 -0.0068276939    2.1233208    4.5207202 -0.00018712519 
   81000    1.6081706 -0.006109817    2.1165421    4.5212263  0.001994617 
   81200    1.5912141 -0.0094846879    2.1453358    4.5212258 0.0071779168 
   81400    1.5910592 -0.0079302551    2.1444572    4.5216693 -0.00071375228 
   81600     1.587571 -0.0056795874    2.1472501    4.5214838 0.0011880469 
   81800    1.5691918 -0.0048996716    2.1747281    4.5221896  0.005965415 
   82000    1.5666878 -0.004099025    2.1774796    4.5219881 0.0038671111 
   82200    1.6047756 -0.002822338    2.1199153    4.5227975 0.0039592243 
   82400    1.5982406 -0.0032196679    2.1298523    4.5225405  0.003855294 
   82600    1.5964951 -0.0041160671    2.1332955    4.5224707 -0.00073727223 
   82800     1.644393 -0.0018584037    2.0594279    4.5226641  0.010694715 
   83000    1.5396388 -0.0068698566    2.2222203     4.523409 -0.0010470085 
   83200    1.6267233 -0.0058351923    2.0907809    4.5235518 0.0079106451 
   83400    1.5912089 -0.0066731374    2.1446719    4.5233656 -0.0038392634 
   83600     1.628676 -0.004343553    2.0863061    4.5234959 0.0079280981 
   83800    1.5878351 -0.0081603513     2.151491    4.5236398 -0.0015037622 
   84000    1.6157023 -0.0062663588    2.1083223    4.5241405 0.00089703901 
   84200    1.6303556 -0.0083266618    2.0883986    4.5241232  0.010630843 
   84400    1.5937375 -0.0080688162    2.1433974     4.524486 -0.00075821171 
   84600    1.6384518 -0.0084266785    2.0770473    4.5248088 0.0012978814 
   84800    1.5804564 -0.0083953212    2.1649926    4.5258451 0.0036476892 
   85000    1.5808705 -0.0099016897    2.1655317    4.5254986 -0.00063596021 
   85200    1.6085963 -0.011484291    2.1262145    4.5261623 0.00021057187 
   85400    1.6266268 -0.0091629497    2.0965337    4.5258322 0.0051692707 
   85600    1.5756911 -0.0054553784    2.1697436    4.5263924 0.00043192051 
   85800    1.5481996 -0.0057964049    2.2115559    4.5266515 -0.0046054386 
   86000    1.6551627 -0.0072288952    2.0520158    4.5260263 0.0062064194 
   86200    1.5999771 -0.0084547041    2.1365858    4.5266423 -0.0026532371 
   86400    1.5626847 -0.0063182515    2.1906628     4.526951 0.0021656526 
   86600    1.5718839 -0.0081729568     2.178987    4.5272108 -0.0013791968 
   86800    1.5830597 -0.0080843968    2.1620589    4.5271249 0.0015330308 
   87000    1.5613267 -0.0074327442    2.1939981     4.527136 0.0035426064 
   87200    1.5869096 -0.0091994988    2.1578294    4.5275516 0.0017116279 
   87400    1.5500491 -0.012724886    2.2167485    4.5276881 -0.0024857335 
   87600    1.5890668 -0.0093638979    2.1548894    4.5276811 0.0037796946 
   87800    1.5901479 -0.0093577153    2.1535388    4.5279574 -0.0022899472 
   88000    1.5643044 -0.0077940023    2.1913297    4.5285702 -0.0043605478 
   88200    1.5854553 -0.0091600767     2.161095    4.5286765  0.005007116 
   88400    1.5799354 -0.010667815    2.1707881    4.5285871 0.00067951218 
   88600    1.6135789 -0.0097948265    2.1197649    4.5288716 -0.00084276922 
   88800    1.5781685 -0.0075546298    2.1711933    4.5294568 -0.0004852765 
   89000    1.5603423 -0.0097961957    2.2004967    4.5297955 0.0022119523 
   89200    1.6005335 -0.0078774489    2.1387005    4.5301683  0.008922974 
   89400    1.5602876 -0.010279488    2.2009319    4.5296654 0.00013470474 
   89600    1.6043917 -0.0090543599    2.1337156    4.5297903 0.0033211868 
   89800    1.5880213 -0.0097438469    2.1592575    4.5301019 0.0015503174 
   90000    1.6000406 -0.0077911954    2.1391072    4.5299223 -0.00021936523 
   90200    1.6184341 -0.0074622805    2.1115594    4.5302769 0.0039612208 
   90400    1.6238759 -0.0086466149    2.1049772    4.5306682 -0.00013733849 
   90600    1.6309601 -0.0071509351    2.0932845     4.531091 0.0088220534 
   90800    1.5687573 -0.0061110067    2.1854503    4.5310491 0.0017310016 
   91000    1.5972726 -0.0073262658    2.1442304     4.531361 0.0061582194 
   91200    1.5485179 -0.011287245    2.2217554    4.5318372 0.0025735236 
   91400    1.6042716 -0.0090876558    2.1360714    4.5319327 -0.0073538919 
   91600    1.6172785 -0.0091037696    2.1166393    4.5319831 0.0083194423 
   91800    1.6151344 -0.0091481756    2.1200399     4.532125 0.0063460431 
   92000    1.6073138  -0.01052359       2.1336    4.5325859 -0.0035837721 
   92200    1.5925499 -0.013400673     2.158819    4.5327954 -0.0062833846 
   92400    1.6063342 -0.013705395    2.1382299    4.5325656  0.002429822 
   92600    1.5787302 -0.010424177    2.1763546    4.5325905 -7.9354363e-05 
   92800    1.5718817 -0.009258846    2.1852905    4.5324252 0.0059275021 
   93000    1.5944502 -0.005795745    2.1481507    4.5325808 0.0062805047 
   93200    1.6039915 -0.0066454214    2.1347324     4.532616 -0.0015339709 
   93400    1.6030016 -0.010467989    2.1407445    4.5333216 -0.00023337005 
   93600    1.6247453 -0.005162356    2.1030756    4.5335541 0.0097116839 
   93800    1.5855104 -0.0084329059    2.1651201    4.5335115 0.00022488778 
   94000    1.6027325 -0.0076066629    2.1386349    4.5336699  -0.00214335 
   94200    1.5759677 -0.0065872956    2.1781264     4.534058 -0.00040191137 
   94400    1.5701729 -0.0043045841    2.1849192    4.5344466 0.0041656903 
   94600    1.6065002 -0.0083568632    2.1335728    4.5335058 0.0038990805 
   94800    1.5762368 -0.0086311391    2.1803723    4.5346635 0.0042967173 
   95000    1.5891489 -0.0067586192    2.1585305    4.5340506 -0.00084676804 
   95200    1.5937247 -0.0067204329    2.1522045    4.5346223 -0.010442039 
   95400    1.5782524 -0.009157991    2.1783778    4.5351636 -0.011068691 
   95600    1.5896789 -0.010090932    2.1617164    4.5346986 0.0060562425 
   95800    1.6162001 -0.0094662088    2.1216471    4.5350118 -0.0026753841 
   96000    1.6168663 -0.0076609256    2.1189621    4.5351307 0.0098658489 
   96200     1.596919 -0.0078565755     2.150135    4.5362052 0.0054586978 
   96400    1.5766913 -0.0061229191    2.1788304    4.5363111  0.005045082 
   96600    1.6179316 -0.0073576568    2.1177489    4.5358179 0.0014242137 
   96800    1.5753646 -0.0073212225    2.1812187    4.5355122 -0.0084344834 
   97000    1.5857511 -0.0053709389     2.164401    4.5362152 0.00043925493 
   97200    1.5546583 -0.0028570058    2.2089796    4.5366967 0.0022988569 
   97400    1.5789711 -0.005227469    2.1748875    4.5366813  0.002610096 
   97600    1.6221087 -0.0043395484    2.1094955    4.5368443 0.0024335836 
   97800    1.6081527 -0.0037401967    2.1302961     4.537323 0.0030382144 
   98000    1.6063947 -0.006066208    2.1350105    4.5370759 0.0039935868 
   98200     1.573696 -0.0052877785    2.1840849    4.5379105 -0.00093924835 
   98400    1.5592442 -0.0075486683    2.2081239     4.538024 0.0094401727 
   98600    1.5784452 -0.0067517685    2.1787666    4.5382476 -0.0037959793 
   98800    1.6064408 -0.0043657806    2.1339135    4.5377484 -0.0028366529 
   99000    1.5542573 -0.0070125034    2.2154217    4.5383823 -0.0020930344 
   99200     1.616021 -0.0059036068     2.121838    4.5384968  0.006356412 
   99400    1.6529664 -0.0070192623     2.067436    4.5383635 0.0026377975 
   99600    1.6026531 -0.004592227    2.1407099    4.5386405 0.0033684383 
   99800    1.6023907 -0.0051309761    2.1416739    4.5386722 0.00070758638 
  100000    1.6000639 -0.0059787288    2.1457397    4.5384023 -0.00097655487 
  100200    1.6394244 -0.0050598787    2.0863808    4.5389671 0.0042308708 
  100400    1.6083498 -0.0067509935    2.1346385    4.5389501 0.0052914307 
  100600    1.5541564 -0.0070714871    2.2167352    4.5394854 0.0047663221 
  100800    1.5988174 -0.010233104    2.1529062    4.5394457 -0.0024397606 
  101000    1.5931732 -0.0085388043    2.1596098    4.5393824 4.2970389e-05 
  101200    1.6311612 -0.0091700218    2.1038134    4.5399023 0.0067485118 
  101400    1.5667624 -0.007615148    2.1988772    4.5399813 0.0072794138 
  101600    1.5967012 -0.0079858843    2.1544579    4.5400723 0.0042195707 
  101800    1.5874168 -0.0059145158    2.1666287    4.5403964 0.0050028664 
  102000    1.5565695 -0.0072913096    2.2145029    4.5406507 -0.0063884093 
  102200    1.5888409 -0.0087311845    2.1677102     4.540796 -0.0031807342 
  102400    1.6107773 -0.0078287726    2.1340358    4.5409085   0.00581339 
  102600     1.564462 -0.0081723131    2.2045791    4.5416776 0.0041976088 
  102800    1.5573259 -0.0064165661    2.2135375     4.541694 -0.0049679202 
  103000    1.5971319 -0.0059432093    2.1532372    4.5415398 0.0067466203 
  103200    1.6081054 -0.0087652437     2.139758     4.541689 0.0032691619 
  103400    1.6082707 -0.0079133684    2.1389712    4.5420017 0.00093281629 
  103600    1.5947442 -0.007699469    2.1594343    4.5424013 0.0031056645 
  103800     1.615211 -0.0058778236    2.1270252    4.5424954 0.0084550362 
  104000    1.6080329 -0.0056416324    2.1379142    4.5428601 0.0029028979 
  104200    1.5704218 -0.0049004543    2.1936826    4.5429872 -0.005215772 
  104400    1.6116387 -0.0069688351      2.13395     4.542974 0.0080426284 
  104600     1.552583 -0.0073547707     2.223069    4.5431773 -0.0031749332 
  104800    1.5870385 -0.0088772117    2.1727612     4.542999 0.0033318864 
  105000    1.5921757 -0.010458937    2.1670719     4.543429 -0.0013600257 
  105200    1.6026535 -0.0075892656    2.1487682    4.5437023 0.0094449423 
  105400    1.5858909 -0.0057723125    2.1722628    4.5438851 0.0013044362 
  105600    1.5900404 -0.006914581    2.1676979    4.5443984 0.0010146292 
  105800    1.6088864 -0.006050106    2.1385304    4.5443473 0.00020456888 
  106000    1.6031423 -0.0081828231    2.1495088    4.5445821 0.0084201022 
  106200     1.590829 -0.0081366931    2.1677705     4.544431 -0.0007413173 
  106400    1.5909616 -0.0075228604    2.1674661    4.5449394 0.0008293919 
  106600    1.5996896 -0.0071468537    2.1536525    4.5445859 0.0025369161 
  106800    1.6074984 -0.0068974036    2.1418273    4.5447161 9.0550283e-05 
  107000    1.6061097 -0.0044173895     2.142246     4.545533 0.0079369446 
  107200    1.5981684 -0.0050270322    2.1548494    4.5456221 0.0036586067 
  107400    1.6354617 -0.006901303    2.1003404    4.5451449 -0.004785007 
  107600    1.5910121 -0.0071529025     2.167895    4.5458139 -0.0042746035 
  107800    1.5704099 -0.0066862875    2.1985149    4.5460157 -0.00044862751 
  108000      1.59817 -0.0075523966    2.1579457    4.5461954 0.0051208757 
  108200    1.6019193 -0.0076419254     2.152573    4.5463537 -0.0012411849 
  108400    1.6293991 -0.0068456571     2.110567    4.5463387 0.0041752111 
  108600    1.5982582 -0.0043194482    2.1553533    4.5469682 -0.00069282722 
  108800    1.5964039 -0.0044240165    2.1585896    4.5473202  0.011274377 
  109000    1.6018809 -0.004456076    2.1504329    4.5473419 -0.0074265276 
  109200    1.6042231 -0.006853558    2.1495681    4.5475907 -0.0018630843 
  109400    1.6008061 -0.0053707246    2.1535475    4.5479306 0.0036893471 
  109600    1.6275519 -0.0047530062    2.1126129    4.5477081 0.0051146443 
  109800    1.6533979 -0.005411094    2.0747013     4.547884 0.0091139608 
  110000    1.5778774 -0.003465443    2.1868476    4.5487638 -0.00032924695 
  110200      1.64023 -0.0056748031    2.0951753    4.5483543 0.00059504597 
  110400    1.6229936 -0.0080018478    2.1234084    4.5484214 0.0024255431 
  110600    1.6325124 -0.0096708367    2.1111108    4.5487244 0.0058115169 
  110800    1.6075082 -0.0092462552    2.1483406    4.5488952 0.0018072685 
  111000    1.6076075 -0.0080180977    2.1467266    4.5486583 0.0045822617 
  111200    1.5862482 -0.0078131662    2.1789301    4.5490472 -0.00090753463 
  111400    1.6257088 -0.0086371063    2.1202076    4.5486557 0.00064834808 
  111600    1.5922111 -0.0087325288    2.1709885    4.5491252 0.0064843473 
  111800    1.5951153 -0.0072542049    2.1658054     4.549774  0.010534675 
  112000    1.6127021 -0.0061917448     2.138351    4.5497462 -0.0074917044 
  112200    1.6266435 -0.0075243247    2.1187756    4.5497378 -0.0060239657 
  112400    1.5830964 -0.0046835308     2.181653    4.5501749 -0.0021502335 
  112600    1.6494611 -0.0042785392    2.0812489    4.5496624 0.0093550577 
  112800    1.5633498 -0.0052754789    2.2119287    4.5502567 0.00012691927 
  113000    1.5936729 -0.0055455204    2.1667428    4.5502578 0.00051764821 
  113200    1.6227444 -0.0045187559    2.1223268    4.5504495 -0.0008679541 
  113400    1.5895941 -0.0077695654    2.1749434      4.55012 0.0023475554 
  113600    1.6135215 -0.0051822272    2.1367848     4.550418  0.010046989 
  113800    1.5779536 -0.010602022    2.1958259    4.5507198 0.00050374763 
  114000    1.6392365 -0.0082948171    2.1012802      4.55035 0.0049993352 
  114200    1.6371849 -0.0076983031    2.1038737    4.5504644 0.0032058662 
  114400    1.5696597 -0.0080052542    2.2060784    4.5511357  0.001703203 
  114600    1.5770544 -0.008031493     2.195115    4.5512314 -0.0017587873 
  114800    1.6208927 -0.0096310106    2.1306384    4.5508728 0.0065352109 
  115000     1.571845 -0.0092392967    2.2047261    4.5518253 -0.0014338693 
  115200    1.6040132 -0.010525693    2.1581806    4.5522166 0.0049406763 
  115400    1.5994112 -0.0094866405    2.1639445    4.5521207 0.0041863962 
  115600    1.6148453 -0.0076823502    2.1393707    4.5524882 -0.0033576191 
  115800     1.624533 -0.0044655228    2.1221559     4.553013   0.00904848 
  116000    1.5893814 -0.0074033439    2.1773857    4.5526096 0.0028179493 
  116200    1.6112954 -0.010682096    2.1480979    4.5528941 0.0027111847 
  116400    1.5951587 -0.010243997    2.1720996    4.5531436 -0.0010575517 
  116600    1.5591181 -0.0070598872    2.2236224    4.5538222 0.0010899765 
  116800    1.6486233 -0.011432812    2.0931439    4.5531472 -0.0020037626 
  117000    1.5918248 -0.0067020728    2.1741136    4.5537017 0.0042571359 
  117200    1.6077566 -0.0069852887    2.1505544    4.5537425  0.003519539 
  117400    1.6128177 -0.0087864181    2.1448105    4.5537843 -0.0033791413 
  117600    1.6170388 -0.0081525554    2.1381806    4.5541162 -0.0025129222 
  117800    1.5977425 -0.0095102568    2.1690377    4.5546887 0.0031057932 
  118000    1.5954398 -0.012773654    2.1757289    4.5546645 0.0048595462 
  118200    1.5940777 -0.012847598    2.1782742     4.555094 0.00054440142 
  118400    1.5961021 -0.0093667883    2.1715271    4.5548625 0.0022874138 
  118600    1.5794331 -0.0088434778     2.196762    4.5556323  0.003586719 
  118800    1.5813793 -0.0097607595    2.1956543    4.5565249 0.0014109376 
  119000    1.5910083 -0.010409674    2.1822537      4.55691 0.00081404098 
  119200    1.5924055 -0.0093638593    2.1789291    4.5567258 -0.0039090352 
  119400    1.5715109 -0.0093040167    2.2112866    4.5578203 0.0031874014 
  119600    1.6304849 -0.0080950834    2.1208359     4.556986 0.0064686548 
  119800    1.6081045 -0.008149117    2.1552101    4.5577559 -0.0019241197 
  120000    1.6003553 -0.011375376     2.170048    4.5577507 -0.0018170396 
  120200    1.6002494 -0.0074843391    2.1664668    4.5579017  0.010324379 
  120400    1.5901002 -0.0059106183    2.1803715    4.5581657 0.0020025823 
  120600    1.6139697 -0.008095539     2.146767    4.5581589 0.0016953638 
  120800    1.6221051 -0.0071920168     2.133633     4.558124 -0.0016052005 
  121000    1.6255784 -0.0095163831    2.1308306    4.5582041 0.0027790824 
  121200    1.6144749 -0.010783346    2.1490977     4.558559 0.0089066964 
  121400    1.6243531 -0.013506698    2.1367486    4.5582948 0.0066996352 
  121600    1.5970048 -0.0097873765    2.1746451    4.5589131 -0.004133254 
  121800    1.6043861 -0.0081398748    2.1622511    4.5592318 0.0038384243 
  122000    1.6142734 -0.0091463563    2.1482352    4.5590315  0.002531168 
  122200    1.6206445 -0.0098461779    2.1397356    4.5593829 0.0061343219 
  122400     1.584606 -0.010416217    2.1945297    4.5595819  0.000302034 
  122600    1.6072272 -0.010058048    2.1599995    4.5593212 -0.00035198695 
  122800    1.6084616 -0.009478455    2.1579042    4.5596559 -0.0013197815 
  123000    1.5993182 -0.0080176879    2.1705295    4.5600352 -0.0034655397 
  123200    1.5793544 -0.0096908614    2.2020205    4.5599256  0.004839475 
  123400    1.6157432 -0.0088943982    2.1468747    4.5601262 0.0092764668 
  123600    1.5784042 -0.010288956     2.204344    4.5602264 0.0047019985 
  123800    1.6244893 -0.0083870362    2.1333011    4.5601711 0.0016599851 
  124000    1.5876639 -0.011178213    2.1919244    4.5607988 -0.0027277728 
  124200    1.6122798 -0.0099300698    2.1539793    4.5610032 -0.00031766711 
  124400    1.5810463 -0.0088773321    2.2002932     4.561548 0.0062643475 
  124600    1.5911099 -0.0072470931    2.1838576    4.5618289 -0.0046404876 
  124800    1.6304832 -0.0059289198    2.1239389    4.5622525   0.00140566 
  125000    1.5998224 -0.0084328598    2.1727948    4.5626412 0.0015023124 
  125200    1.6383674 -0.007906941    2.1146146    4.5627693 0.0029769521 
  125400    1.6110217 -0.0078985513    2.1558886     4.563058 -0.0054198866 
  125600    1.5787917  -0.00595269    2.2022789    4.5630784 0.0010753525 
  125800    1.6299204 -0.0068519147    2.1264101     4.562957 0.0060906755 
  126000    1.5666736 -0.0068126832      2.22203    4.5638034 0.0022927424 
  126200    1.5825556 -0.0061608514    2.1976298    4.5638637 0.0040002242 
  126400    1.5880543 -0.0058994989    2.1890623    4.5638005  -0.00291243 
  126600     1.575858 -0.0063204335    2.2079809    4.5640149 -0.0030686519 
  126800    1.5918916 -0.0052023523    2.1829226    4.5641105 -0.0035362495 
  127000    1.6216679 -0.006713673    2.1398899    4.5642039 0.0044791171 
  127200    1.6017888 -0.0047373728    2.1683923     4.564882 -0.004184305 
  127400     1.608246 -0.0060717501    2.1602436    4.5650788 0.0004700117 
  127600    1.5769766 -0.0067817608    2.2080517    4.5653012 -0.0013013103 
  127800     1.604565 -0.0091026587    2.1695713    4.5658574 0.0064042292 
  128000    1.5786206 -0.0093202571    2.2089142    4.5660897 -0.0012916702 
  128200    1.5936617 -0.0079746992    2.1855651    4.5666341 -0.0046234196 
  128400    1.5827244 -0.0076183316     2.202224    4.5672534 0.0023558882 
  128600    1.6175666 -0.008285789    2.1504431    4.5670367 0.0071057139 
  128800    1.6223931 -0.0079805703    2.1432498     4.567384 -0.0046696567 
  129000    1.6479927 -0.0067086015    2.1035912    4.5673735  0.001191168 
  129200    1.6158015 -0.0058974604    2.1517148    4.5680506  0.001457903 
  129400    1.6231609 -0.0041736356    2.1390878    4.5681799 -0.0031062877 
  129600    1.5902547 -0.0057436328    2.1904321    4.5686249 0.0067380877 
  129800    1.6160822 -0.0093134438    2.1549527    4.5682933 0.0053413255 
  130000    1.6058168 -0.009022082    2.1701589    4.5684022 -0.0041286716 
  130200    1.6079403 -0.0076283496    2.1660127    4.5688331 6.2123878e-05 
  130400    1.5785384 -0.0070363981    2.2096424    4.5689785 0.0042467553 
  130600    1.6011738 -0.0075245449    2.1762503    4.5690308 0.0043541748 
  130800    1.6253033 -0.007003403    2.1391978    4.5686717 0.00027374044 
  131000    1.6337374 -0.0080354054    2.1274355    4.5685209  0.011390072 
  131200    1.6060199 -0.0078945096    2.1693757     4.569051 -0.0036080728 
  131400    1.6127006 -0.0085276401    2.1598512    4.5689083 -0.0019175016 
  131600    1.5993518 -0.0072707101    2.1791082    4.5694113 0.00060451489 
  131800    1.5981114 -0.0064199577     2.180341    4.5696354 -0.0014936696 
  132000    1.6127348 -0.0087619235    2.1607715    4.5696456 0.0018576755 
  132200    1.5995711 -0.010269474    2.1818911    4.5695241 -0.0018024596 
  132400    1.5879562 -0.0089823926    2.1987134    4.5702217 0.0031992958 
  132600    1.5913309 -0.0080491697     2.193222    4.5707225 0.0011359038 
  132800    1.6163904 -0.007446838    2.1546003    4.5702697 0.0053492871 
  133000    1.6012367 -0.0064083132    2.1765762    4.5705672 0.00034725464 
  133200    1.6397308 -0.010223776    2.1226819    4.5705635 0.0043059652 
  133400    1.6175044 -0.0090576689    2.1549543    4.5706829 0.0058090963 
  133600    1.6295035 -0.0072597094    2.1356188     4.571133 0.0032133461 
  133800    1.6128367 -0.0093422318    2.1631906    4.5716373 -0.001454079 
  134000    1.5965398 -0.011587844    2.1907516    4.5725221 0.0025632606 
  134200    1.6079489 -0.011063779    2.1729134    4.5723112 0.0035142989 
  134400    1.6125355 -0.0034834959    2.1581953    4.5720491  0.010034295 
  134600    1.6413249 -0.012830763    2.1240975     4.571762 0.0039211762 
  134800    1.6143987 -0.0097815584    2.1625948    4.5729435   0.00730472 
  135000    1.6339415 -0.013848356    2.1365605     4.572139 0.0018890788 
  135200    1.6179954 -0.011886827    2.1586973    4.5723327 -0.0022766801 
  135400    1.5669757 -0.015323715    2.2392967    4.5730121 3.0000894e-05 
  135600    1.6220504 -0.018723212    2.1600412     4.572919  0.003508253 
  135800    1.5989369 -0.013827016    2.1902851    4.5734098 -3.1711797e-05 
  136000    1.6326353 -0.012847309    2.1387602    4.5733816 -0.00045868871 
  136200    1.6183457 -0.008118606    2.1555657    4.5734944 0.00064575945 
  136400    1.5793811 -0.0090761479    2.2148926    4.5734523 -0.0045994643 
  136600    1.5793613 -0.009012635    2.2150636    4.5736572 0.0017081032 
  136800    1.6243272 -0.0074074568    2.1459546    4.5735613 0.0070440396 
  137000    1.5874366 -0.0067653758     2.201022    4.5739685 -0.003055994 
  137200     1.624322 -0.0064993429    2.1454605    4.5739675 0.0064796661 
  137400    1.5861764 -0.0067132832    2.2032784    4.5743877 0.0033044653 
  137600    1.6453075 -0.0048535923    2.1130355    4.5746474 0.0030993481 
  137800     1.640153 -0.0051971728    2.1213951    4.5749363 0.0016704225 
  138000    1.5698783 -0.0045725756    2.2262843     4.575102 -0.0036616618 
  138200    1.6209005 -0.0081078164     2.153496    4.5752654  0.010315812 
  138400    1.6292355 -0.0058658917    2.1387026    4.5752088 0.0063630209 
  138600    1.6082415 -0.0050111516    2.1700901    4.5759792 -0.00046796163 
  138800    1.5850003 -0.0052458858    2.2052126    4.5760263 -0.0011925028 
  139000    1.5964692 -0.0086068418    2.1913205    4.5759661 -0.00051424325 
  139200    1.6106036 -0.0058586597    2.1676113    4.5761938 0.0042396687 
  139400     1.627367 -0.0064129431    2.1439034    4.5770616 0.0060027397 
  139600    1.6040795 -0.008343568    2.1805735    4.5768909 -0.0036530001 
  139800    1.6127886 -0.0062756241    2.1656865    4.5771277 0.0027732557 
  140000    1.6300791 -0.0078033742    2.1408215    4.5766549 0.00077208956 
  140200    1.6448356 -0.0076065786    2.1189381    4.5770896 0.0049380468 
  140400    1.6217073 -0.0061780798     2.152546    4.5774546 0.0029216783 
  140600    1.6256231 -0.0070415756    2.1476234    4.5775386 0.0072390706 
  140800     1.594755 -0.0062877017    2.1929013    4.5772963 -0.0090548591 
  141000    1.6268344 -0.0099995191    2.1483077    4.5770809 0.0034317428 
  141200      1.58523 -0.010894704    2.2121411    4.5776502 0.0033466862 
  141400    1.6432309 -0.013505054    2.1274567    4.5773042 0.00016630744 
  141600     1.622519 -0.0075677222    2.1530437    4.5777794 -0.0019029507 
  141800    1.5952044 -0.0097114718    2.1965427    4.5781876 0.0037743172 
  142000    1.6023012 -0.0088146383    2.1854065     4.578587 -0.00021380584 
  142200     1.607056 -0.0072791186     2.176405     4.578249 0.0035186394 
  142400    1.6213294 -0.0089392806    2.1568703    4.5784511 0.0047729543 
  142600     1.634948 -0.0074421268    2.1353913    4.5788848 0.0027571088 
  142800    1.6263109 -0.0076514488     2.148677    4.5790134 -0.0039540736 
  143000    1.6050323 -0.0075623458    2.1811725    4.5796996  0.010332063 
  143200    1.6211838 -0.0083323512    2.1578363    4.5798059  0.001320076 
  143400    1.6001183 -0.0090317688    2.1895176    4.5792086 -0.0011555225 
  143600    1.5869278 -0.0085744775    2.2093907    4.5797653 0.0020440548 
  143800    1.6087523 -0.0057580847    2.1739832    4.5798911 0.0052765708 
  144000    1.6132369 -0.0049723269     2.166754    4.5801703 0.0015979427 
  144200    1.6293102 -0.0066883447    2.1442235    4.5800193 -0.00048486458 
  144400    1.6036612 -0.0065752381    2.1841439    4.5816026 0.0053665092 
  144600    1.5888916 -0.0036703007    2.2029974      4.58122 -0.0044222574 
  144800    1.6198705 -0.0054170946    2.1582101    4.5811261 0.0022186121 
  145000    1.6193533 -0.0053156339    2.1590235    4.5812657 0.0059618462 
  145200    1.5941642 -0.0070542413    2.1987798    4.5815226 -0.0023078532 
  145400    1.6164158 -0.0041374699    2.1627647    4.5817815 -0.0011060345 
  145600    1.6044092 -0.0063040987    2.1830447    4.5818958 0.0035364691 
  145800    1.6230435 -0.0069262218    2.1564442    4.5826078 0.0073282835 
  146000     1.639345 -0.0054712092    2.1306926    4.5827485 -0.001721273 
  146200    1.6142103 -0.0043900979    2.1675331     4.582991 0.0072635228 
  146400     1.562217 -0.0051310238    2.2469985    4.5837728 0.0035197061 
  146600    1.6412008 -0.0056136057    2.1281654     4.582861 0.0063158613 
  146800    1.5975232 -0.0050731838    2.1935536     4.583313 0.0071020902 
  147000    1.6189182 -0.0051440854    2.1617647    4.5835262 0.0056377393 
  147200    1.6078063 -0.0068022576    2.1804145    4.5838601 -0.0081163225 
  147400    1.6219095 -0.0094023435    2.1621454    4.5841329 0.0040918237 
  147600    1.6462514 -0.0078805201    2.1238975    4.5838975  0.010230538 
  147800    1.5890362 -0.0046373023    2.2072819    4.5847544 0.0015255621 
  148000    1.5780685 -0.0055951334    2.2248434    4.5849164 -0.0017549591 
  148200    1.6137698 -0.007314455     2.173341    4.5852142 0.0011820636 
  148400    1.5999061 -0.0068145839    2.1938452    4.5854354 -0.0064155496 
  148600     1.593251 -0.0046608363    2.2022404    4.5860077  0.013365616 
  148800     1.628441 -0.0044365211    2.1489004    4.5856449  0.006465737 
  149000    1.6136366 -0.0050333377    2.1715667    4.5855214 -0.0010350696 
  149200    1.5591462 -0.0035196678    2.2525786    4.5863608 -0.007246321 
  149400    1.5822504 -0.0045379424      2.21857    4.5859692 0.0051057805 
  149600    1.5891948 -0.0062649642    2.2104732    4.5865556 0.0012214526 
  149800    1.5907788 -0.0068995746    2.2091632    4.5869857 -0.0036684563 
  150000    1.6134225 -0.0076677309    2.1758806    4.5868798  0.008371491 
  150200    1.5943118 -0.008043033    2.2047276    4.5867029 -0.0024627637 
  150400    1.5874841 -0.0070748143     2.214669    4.5873771 0.0025936407 
  150600    1.5931764 -0.0085517728    2.2073606    4.5871251 0.0041313275 
  150800    1.6305914 -0.0094043628    2.1522334    4.5872337 0.0020024098 
  151000    1.6085387 -0.011139622    2.1874547    4.5876609 -0.00089778086 
  151200    1.6503337 -0.0095005078    2.1239127    4.5884124 0.0092884836 
  151400    1.5998701 -0.0064310843    2.1971259    4.5890456 0.0019858788 
  151600    1.5983805 -0.0082948062    2.2013016    4.5891245 0.0061219905 
  151800    1.6320736 -0.0059397489    2.1482059    4.5888928 -0.0010478155 
  152000    1.6125813 -0.0050586792    2.1765377    4.5888849 -0.00037329423 
  152200    1.6131542 -0.0087062917    2.1798765     4.589435  0.003270278 
  152400    1.6168016 -0.0099270513    2.1756083    4.5894138 0.0055322106 
  152600    1.6026849 -0.0078266351    2.1950327    4.5897764  0.003139006 
  152800    1.6528079 -0.0056011022    2.1175465    4.5896546 0.00029748933 
  153000    1.6294045 -0.0049850056    2.1519116    4.5895521 -0.0001990309 
  153200    1.6328742 -0.0045520458    2.1463608    4.5896356 0.0034473147 
  153400    1.5858563 -0.0053163834    2.2181383    4.5901647 0.0017668796 
  153600    1.6405431 -0.0072015379    2.1384649    4.5905866 0.0022899945 
  153800    1.6093539 -0.0080935862     2.186417    4.5908912 -0.002276347 
  154000     1.587378 -0.0040440033    2.2159847    4.5915646 0.0037572832 
  154200    1.6263781 -0.0096297065    2.1628147    4.5912736 0.0024522197 
  154400    1.5855732  -0.01080948    2.2253942    4.5915031 -5.8613842e-05 
  154600    1.5469696 -0.0083165109    2.2810496    4.5917812 0.0033244843 
  154800    1.5761851 -0.0074534794    2.2364855    4.5918768 -0.0030724893 
  155000    1.5980559 -0.0062318099    2.2026767     4.592076 -0.00097399567 
  155200    1.6052316 -0.0076872664    2.1938815    4.5925823 0.0011520069 
  155400    1.5983759 -0.0087981163    2.2055189    4.5928316  0.004617467 
  155600    1.6009424 -0.0096762138    2.2022502    4.5925323 0.0038582608 
  155800    1.6205796 -0.0060320496    2.1693564    4.5927205 0.0028659987 
  156000    1.6371913 -0.0052827967    2.1442318    4.5932476 -0.0007003054 
  156200    1.6058719 -0.0081483069    2.1943838    4.5935834 0.0022925582 
  156400    1.6262918 -0.0073061462    2.1628741    4.5935272 0.0077425832 
  156600     1.602081 -0.0091670453    2.2007808    4.5932789 -0.004600515 
  156800    1.6426911 -0.0084771498    2.1394411    4.5935073 1.4923265e-05 
  157000    1.6033941 -0.011260931    2.2014396    4.5938122 -0.0023270193 
  157200    1.6155338 -0.0065540623    2.1785282    4.5938061 0.0098190008 
  157400    1.5748667 -0.0083235053    2.2419626    4.5945075 -0.002597633 
  157600    1.6050673 -0.0096920521    2.1977824    4.5942321  0.002040963 
  157800    1.5665086 -0.011579255    2.2578026    4.5945622 -0.0060689847 
  158000     1.633246 -0.0089496216    2.1550983    4.5945329    0.0058552 
  158200    1.5672306 -0.0077825297    2.2536606    4.5952992 0.0039200365 
  158400    1.5957605 -0.0082661631    2.2115793    4.5955032 0.0015505589 
  158600    1.6080193 -0.0069089448    2.1918507    4.5955089 0.0048018278 
  158800     1.572909 -0.0099229224      2.24759    4.5956006 0.00078125746 
  159000    1.6004556 -0.012002451    2.2087781    4.5960041 0.0082562414 
  159200    1.6054072 -0.0049795163    2.1944602     4.596132 0.0058684916 
  159400    1.6050902 -0.0062059452     2.196271    4.5962412 -0.0032161083 
  159600    1.6474239 -0.0073581814    2.1345435    4.5968236 -0.00096068135 
  159800    1.5838393 -0.0071892533    2.2299822    4.5971121 -0.005846433 
  160000    1.5924355 -0.0056977228    2.2160728    4.5975807 -0.0019094651 
  160200    1.6217307 -0.0071039072    2.1736343    4.5976521 0.00056710955 
  160400    1.6409102 -0.0065748849    2.1452315    4.5985301 -0.0025918633 
  160600    1.6087171 -0.0070002624    2.1936794    4.5982924 0.0064683263 
  160800    1.6265853 -0.0066333461     2.166585    4.5983508  0.002899493 
  161000    1.5700924 -0.0059185285    2.2513241    4.5991169 -0.00069181821 
  161200    1.6068475 -0.0068652202    2.1966932    4.5986384 0.00098105505 
  161400    1.6252433 -0.0059475151    2.1690228    4.5994627 0.0032015824 
  161600    1.5905743 -0.0058935718    2.2206864    4.5992083 -0.0069648894 
  161800    1.6054795 -0.0083798578    2.2010499    4.5994299 0.0060505625 
  162000    1.5764235 -0.0076426418    2.2438337    4.5993932 0.0032042951 
  162200    1.6528324 -0.0065569254    2.1276112    4.5988003 0.0059609107 
  162400    1.5912013 -0.0060362233    2.2203918    4.5997109  0.001357551 
  162600    1.5796665 -0.0045612766    2.2368376    4.6003401  0.004702704 
  162800    1.6217792 -0.008212623     2.176629    4.5996108  0.011253223 
  163000    1.6236057 -0.010585056    2.1764214    4.5997688 -0.0010688997 
  163200    1.5785406 -0.0093298226    2.2427934    4.5998394 -0.0037891296 
  163400    1.6408574 -0.0080129991    2.1472215    4.5990029 0.0073880303 
  163600    1.6066247 -0.0085040545    2.1999591    4.5999315 -0.007138193 
  163800    1.5956297 -0.0080756022    2.2162825    4.6002008 -0.0090451314 
  164000    1.6150637 -0.0099660437    2.1891213    4.6002826  0.003134276 
  164200    1.6416628 -0.010097023    2.1500426    4.6009473 0.0026053727 
  164400     1.595857 -0.0096467698    2.2181301    4.6008181 0.0011170741 
  164600    1.5996661 -0.012024852    2.2150675    4.6010876 0.0050944064 
  164800    1.5916333 -0.011191859    2.2267497    4.6015608 0.00010532192 
  165000     1.591727 -0.0082290214    2.2238593    4.6017738 -0.00096371216 
  165200    1.5992732 -0.010138577    2.2146401    4.6019575 0.0029557998 
  165400     1.601272 -0.010190138    2.2117747    4.6020368 0.0034254693 
  165600    1.6602998 -0.0081288099    2.1210319    4.6018434  0.004424601 
  165800     1.607467 -0.0075796283    2.2006313    4.6027908 0.0012145397 
  166000    1.6089137 -0.0071112685    2.1978223    4.6026189 -0.00043417699 
  166200    1.5890502 -0.0098432491    2.2310072    4.6032947 -0.0038375867 
  166400    1.6505218 -0.004895936    2.1339751    4.6033614 0.0073142897 
  166600    1.6115899 -0.0062457274    2.1939064    4.6035804 -0.0051079028 
  166800    1.5934784 -0.0056129551    2.2202065    4.6033625 0.00045516975 
  167000    1.5846498 -0.0068754446    2.2350544    4.6037131 0.0056138764 
  167200    1.6125149 -0.0082787428    2.1946217    4.6036495 0.00071388881 
  167400    1.5935813 -0.0067761067    2.2214071    4.6035542 -0.00077325052 
  167600    1.6074052 -0.0074930897    2.2017722    4.6039256  0.002266057 
  167800    1.6305487 -0.0067764802    2.1672992    4.6048634 -0.0067035865 
  168000    1.5947974 -0.005365953    2.2196278    4.6050082 -0.0031513594 
  168200    1.5901781 -0.0064947504    2.2276645    4.6049913 -0.0047958328 
  168400    1.6129711 -0.0044318975    2.1918509    4.6054093 0.0052623437 
  168600    1.5902899 -0.0048173993    2.2258623    4.6050339 0.0055748451 
  168800    1.5861797 -0.0047508345    2.2326694    4.6057462 -0.0027313692 
  169000    1.5823151 -0.0039510953    2.2378733    4.6059564 -0.0067788514 
  169200    1.6129996 -0.0038977703    2.1917011    4.6058363 0.0034672139 
  169400    1.6061525 -0.0063652812     2.204596    4.6059993 -0.0051501021 
  169600     1.609055 -0.007154389    2.2011786    4.6061439 -0.0012171033 
  169800    1.6205666 -0.0065499577    2.1840901    4.6069168 0.0012011792 
  170000    1.6056577 -0.0059356882    2.2060266    4.6071177 -0.0060986993 
  170200    1.5975364 -0.0049785033    2.2173242    4.6071979 -0.0038782798 
  170400    1.5973153 -0.0040128192    2.2172066    4.6077146   0.00273259 
  170600    1.5886198 -0.004438649    2.2300031      4.60705  -0.00157386 
  170800    1.6071905 -0.0062340787    2.2041239    4.6072144 0.0060812703 
  171000    1.6064467 -0.0056846803    2.2052837    4.6078086 -0.0059331752 
  171200    1.6315217 -0.0068344398    2.1686261     4.607591 0.00024540899 
  171400    1.6192739 -0.0080528084    2.1882818    4.6076678 0.0025004054 
  171600    1.6084846 -0.0086958775    2.2051884    4.6077572 -0.00070492993 
  171800    1.6006779 -0.0073035982    2.2159995    4.6082575 -0.00044143282 
  172000    1.6491365 -0.0058866455    2.1419191     4.608238 0.0026098428 
  172200     1.616069 -0.0040253416    2.1900274    4.6086365 -0.0083632806 
  172400    1.5727006 -0.00078703745    2.2526415    4.6094756 0.0016166933 
  172600    1.5807309 -0.0035922399    2.2431819     4.609249 -0.0060262302 
  172800    1.6362251 -0.0059620131    2.1630347    4.6099229 0.0047456526 
  173000    1.6192545 -0.0070886793    2.1899195    4.6102405 0.0061223081 
  173200    1.6120553 -0.0070002301    2.2006196    4.6102369 -0.0053208135 
  173400     1.635892 -0.0053051844    2.1635575    4.6106031 0.0017163406 
  173600    1.6427854 -0.0058564435    2.1539865    4.6108148 0.0054069847 
  173800    1.6056896 -0.0070232976    2.2112205     4.611272 0.00079268549 
  174000    1.5794218  -0.01019269     2.254217    4.6117211 0.0030307319 
  174200     1.603134 -0.0080018269    2.2163924    4.6116342 -0.00028733155 
  174400    1.6384769 -0.0075426836    2.1628721    4.6115553 0.0018557817 
  174600    1.6268017 -0.0082589205    2.1812553    4.6117201 0.00046819943 
  174800    1.6105103 -0.0055948093    2.2033317    4.6120383 0.0039562462 
  175000    1.5785949 -0.0070538863    2.2533034    4.6127068 0.0028423121 
  175200    1.5820624 -0.0083775966    2.2491754    4.6124532 -0.0058137055 
  175400     1.583427 -0.0078343662    2.2463272    4.6121938 0.0038003358 
  175600    1.6267206 -0.0097787314    2.1840988    4.6129221 0.0067712959 
  175800    1.6511778 -0.0085481396    2.1459894    4.6127068 -0.0010849971 
  176000    1.5585566 -0.011535969    2.2873908    4.6122729 -0.007061766 
  176200    1.6184448 -0.010727984    2.1967852    4.6122531 0.0083118097 
  176400    1.5784329 -0.006273687    2.2533534    4.6132941 -0.0057226401 
  176600    1.6273404 -0.0080827526    2.1812278    4.6126762  0.014256774 
  176800    1.5725207 -0.0060229466    2.2621475     4.613476 -0.0016701531 
  177000    1.5817082 -0.0071034801    2.2501621     4.614183 -0.0013964304 
  177200    1.6188423 -0.0077576436    2.1946121    4.6136463 0.0036836852 
  177400    1.6035656 -0.0057359807    2.2156503    4.6138049 -0.0050398106 
  177600    1.6128818 -0.0060873226    2.2018019     4.613571 0.00094906485 
  177800    1.6095683 -0.0051720203    2.2066258    4.6143431 -0.0012629692 
  178000    1.6213825 -0.0063147638     2.189681     4.613966 -0.0035186505 
  178200    1.6362721 -0.0029951225    2.1645657    4.6144912 -0.00010815408 
  178400    1.5671342 -0.003177428    2.2694473    4.6155466 -0.0041247594 
  178600    1.5881998 -0.0043762901    2.2384049    4.6148845 -0.0012745544 
  178800    1.6182805 -0.005393828    2.1944218    4.6149776 0.0021984465 
  179000    1.6257571 -0.0052336976    2.1831767    4.6151007 0.0031449044 
  179200    1.6222402 -0.0067968425    2.1904874    4.6155761 0.0054495713 
  179400    1.6158408 -0.008163476    2.2017452     4.615874  0.012753545 
  179600    1.6461776 -0.0061982283    2.1537374     4.615309 0.0007878154 
  179800    1.6234387 -0.0057069146    2.1877049    4.6156802 -0.0012040134 
  180000    1.5808688 -0.0058125054     2.252261    4.6163146 0.0028431115 
  180200    1.6075819 -0.004574426    2.2108996    4.6162367 0.0054938756 
  180400    1.6065069 -0.0080820753    2.2164632     4.616681 0.0004641527 
  180600    1.6094643 -0.0052927234    2.2095449    4.6169855 0.0053650291 
  180800    1.6014087 -0.0058501532    2.2222421    4.6170492 -0.00051913523 
  181000    1.6172195 -0.005603363    2.1984361    4.6171918 0.00085333464 
  181200    1.6344444 -0.0057286529    2.1732714    4.6177234 0.0040875931 
  181400    1.6216164 -0.0062684218    2.1926399    4.6173218 0.0052702558 
  181600    1.5976146 -0.0074333114    2.2306385    4.6181747 0.0033592053 
  181800    1.6572588 -0.0067191708    2.1398239    4.6174863 -0.00067712125 
  182000    1.6217833 -0.0093315471    2.1960358    4.6179049 -0.0039340691 
  182200    1.6326745 -0.006996381    2.1774587    4.6179898 0.0030977846 
  182400    1.6132174 -0.0076016432     2.207875    4.6186329 0.0025683244 
  182600    1.6114526 -0.0067499497    2.2095936    4.6185575 0.0025593476 
  182800    1.5854939 -0.005164967    2.2472664    4.6189009 0.0051037439 
  183000    1.6072873 -0.0061387028    2.2155134    4.6188444 -0.007174463 
  183200    1.6049558 -0.0042199519    2.2173682    4.6191228 -0.0021811983 
  183400    1.5760921 -0.0048351727    2.2617215    4.6195917 0.0031440228 
  183600    1.6179531 -0.0073121103    2.2013023     4.619449 -0.0020924483 
  183800     1.616649 -0.0095966734    2.2049134    4.6188206 0.00084745108 
  184000    1.5837989 -0.0085226345    2.2537061    4.6194421 0.0052598846 
  184200     1.610092 -0.0059003079    2.2117274    4.6195013 -0.0032454266 
  184400    1.6184788 -0.0081268577    2.2019793    4.6200992 0.00080133362 
  184600    1.6203086 -0.0058690935    2.1973068    4.6204277 0.0020626444 
  184800    1.6319581 -0.0066288015    2.1809484    4.6207731 0.0064741069 
  185000    1.6075947 -0.0058243962    2.2171457    4.6212519 0.0039422152 
  185200     1.574622 -0.0082975507    2.2690811     4.621285 0.0041004681 
  185400    1.5873644 -0.0071669528    2.2490677    4.6215043 -0.0082624439 
  185600    1.6181164 -0.0062052913    2.2020982    4.6215964 -0.0016941261 
  185800        1.635 -0.0075177239    2.1782531     4.621749 0.0050553512 
  186000    1.6141162 -0.007825981    2.2103309    4.6222118 0.0012152482 
  186200    1.6043197 -0.0044847275    2.2216953    4.6222317 -0.0049355594 
  186400    1.6119983 -0.0066935746    2.2130829    4.6229212  0.004508199 
  186600    1.6220014 -0.007481958    2.1987191    4.6227646 0.0096714001 
  186800    1.6140849 -0.0087013347    2.2120673     4.623026 0.0050739551 
  187000    1.6166725 -0.0061578477    2.2058147    4.6231959 0.00086824854 
  187200    1.6202268 -0.0064597075    2.2006179    4.6230255 0.0038646445 
  187400    1.6218168 -0.0071482735     2.199461    4.6235635 0.0029815808 
  187600     1.633475 -0.0092409453    2.1839276    4.6234142 -0.0026613469 
  187800    1.6050305 -0.0081589741    2.2255575    4.6234852 0.00088933848 
  188000    1.6284475 -0.0096387595    2.1918916    4.6234437 0.0016060228 
  188200    1.6167154 -0.010465629    2.2105432    4.6236809 -0.0041535105 
  188400    1.5913803 -0.0068834191    2.2453092    4.6240494 0.0061055095 
  188600      1.58779 -0.0097928062    2.2532527    4.6237014 -0.0019790494 
  188800      1.59091 -0.0085487163    2.2483654    4.6247354 -0.0060537844 
  189000    1.5970329 -0.010054456    2.2406841    4.6247271 0.0022846159 
  189200    1.6227789 -0.0098689988    2.2017506    4.6245747 -0.0029204536 
  189400    1.6252721 -0.011636445    2.2008726    4.6256668 -0.0013097905 
  189600    1.6063136 -0.0091568076    2.2269981    4.6258514 0.0041258681 
  189800    1.5982839 -0.0085515363    2.2387116     4.626133 -0.003122773 
  190000    1.5977351 -0.0084057851    2.2395161    4.6262605 -0.001274213 
  190200    1.5953377 -0.0097714089    2.2449526    4.6267375 0.00021176416 
  190400    1.6176166 -0.0070874096    2.2091755    4.6270424 0.0026377235 
  190600    1.6115794 -0.0091794807    2.2207513    4.6274758 -0.0028699502 
  190800    1.5973894 -0.0075325002    2.2408157    4.6279151 0.0098743575 
  191000    1.5900861 -0.0085176768    2.2531471     4.628313 -0.0053764531 
  191200     1.603048 -0.0090682053    2.2340332    4.6280796 -0.0055048909 
  191400     1.605669 -0.0083872712    2.2297612    4.6284177 0.0071738286 
  191600    1.6334231 -0.0062225457    2.1858992    4.6283264  0.007277801 
  191800    1.5728492 -0.0076899257    2.2784509    4.6286049 -0.0049231869 
  192000    1.6202271 -0.0072013702    2.2067454    4.6284118 0.0097928869 
  192200    1.6421251 -0.010796577    2.1777681    4.6286663 -0.00037238512 
  192400    1.6302094 -0.007233723    2.1922828    4.6288813  0.003237956 
  192600    1.5823456 -0.0072497479    2.2647269     4.629557 0.0025723188 
  192800    1.6218112 -0.0092618322    2.2076706    4.6296512 0.0053997475 
  193000    1.6486234 -0.0085646358    2.1665809    4.6294525 0.0028830353 
  193200    1.6281607 -0.0081973391    2.1975656    4.6301292 0.00089353076 
  193400    1.6343026 -0.0058439764    2.1865015    4.6306257 0.0033641216 
  193600    1.6150869 -0.0094252497    2.2189094    4.6306462 -0.0030731471 
  193800    1.6367794 -0.0076791982    2.1846955    4.6306973 0.0065902044 
  194000    1.6022959  -0.00726466    2.2362099    4.6309324 -0.0025891538 
  194200    1.6014139 -0.0075426757    2.2383284    4.6314507 0.0021779186 
  194400    1.5950313 -0.0077782024    2.2486276    4.6319462 -0.004298456 
  194600    1.5901857 -0.0073117741    2.2554654    4.6319865 8.8611329e-05 
  194800     1.610559 -0.0020373908    2.2193418    4.6316788 0.00055890666 
  195000    1.6081405 -0.0075542794    2.2290272    4.6322218 -0.002948811 
  195200    1.6369602 -0.004554446    2.1828961    4.6322938 0.0020914657 
  195400    1.6441839 -0.007580106    2.1753949     4.632596  0.006704814 
  195600    1.6112972 -0.0071870085    2.2248468    4.6331407 0.0023867899 
  195800    1.6210284 -0.0075581001    2.2104603    4.6329711 -0.00097324532 
  196000    1.6272001 -0.0099942518    2.2037464     4.633073 -0.0017223254 
  196200    1.6180893 -0.009134529    2.2172764    4.6338049 -0.0025483811 
  196400    1.5927702 -0.010060045    2.2565373    4.6341846 0.0035358574 
  196600    1.6326678 -0.011761542    2.1989669    4.6347229 0.0057190489 
  196800    1.6100529 -0.0067452635     2.228263    4.6351335 -0.0031742553 
  197000    1.6511127 -0.0077382134    2.1674396    4.6348694 -0.0027721849 
  197200     1.622332 -0.0036399335     2.206701    4.6350842 -0.0066166611 
  197400    1.6619889 -0.0058035055    2.1490635    4.6347324 0.00059570465 
  197600    1.6280407 -0.0068158183    2.2012099    4.6349751  0.003150632 
  197800      1.57275 -0.0039043416    2.2827755    4.6365664 0.0019820341 
  198000    1.6247263 -0.0052905872    2.2062413    4.6365632 -0.0013205978 
  198200    1.6330583 -0.0062120107    2.1945998    4.6364906 0.00029029812 
  198400    1.5922053 -0.0092710364    2.2589501    4.6365395 0.0035950548 
  198600    1.5759973 -0.0076382906    2.2816407    4.6365657 -0.0061404441 
  198800    1.6081212 -0.0072460014    2.2333897    4.6368636 -0.0033545458 
  199000    1.6061402 -0.0076347624     2.236796    4.6369113  0.001576362 
  199200    1.6264117 -0.0071105553    2.2054232    4.6364516 0.00054630004 
  199400    1.6132557 -0.0065506101    2.2246231    4.6364894 0.0063913021 
  199600    1.6147982 -0.0093462278    2.2252737    4.6366568 0.0035329951 
  199800    1.6426308 -0.0077206395    2.1827762    4.6375084 -0.0011995766 
  200000    1.5797483 -0.0058832833    2.2753494    4.6376525 -0.0038294052 
  200200    1.6072719 -0.0072404381    2.2354055    4.6376118  0.008261957 
  200400    1.6467366 -0.0077021009    2.1771114    4.6380171 -0.003925235 
  200600    1.6059213 -0.0023733374    2.2338404    4.6388891 0.0032280808 
  200800    1.6471956 -0.0054498051    2.1741504    4.6379966  0.001629378 
  201000    1.6153123 -0.0048066588     2.221814    4.6385074 0.00067732959 
  201200    1.5944201 -0.0059385776    2.2544064    4.6386485 0.0038149166 
  201400    1.6089398 -0.006637228     2.233567    4.6388767 -0.0068111995 
  201600    1.5946678 -0.0072536696    2.2562097     4.639508 0.0019899675 
  201800    1.6114953 -0.0059951431    2.2294902    4.6392731  0.005980548 
  202000     1.639457 -0.0027738654    2.1841145    4.6390358 0.0063249837 
  202200    1.5882918 -0.0042688545    2.2627608    4.6394857 -0.00023505845 
  202400    1.6270566 -0.0054112373    2.2057449    4.6394395 0.0007374209 
  202600     1.620587 -0.0054817086    2.2156716    4.6395971 -0.0038108577 
  202800    1.6442198 -0.005985975    2.1805331    4.6393821 0.00070833455 
  203000    1.6278796 -0.0095263633    2.2089156    4.6397287 0.0020138486 
  203200    1.6606105 -0.0087236134    2.1588601    4.6395425 0.0058213299 
  203400    1.6178472 -0.0064024363    2.2208912    4.6397887 0.0010666356 
  203600    1.5797753 -0.006449522    2.2786065    4.6403838 0.00067585058 
  203800     1.619664 -0.0059864624    2.2183406    4.6403778  0.005985404 
  204000    1.6435167 -0.0069148046    2.1837225    4.6405887 0.0051008977 
  204200     1.632936 -0.010587892    2.2036598    4.6409915 -0.00027569108 
  204400    1.6161542 -0.009511354    2.2280475    4.6412982 0.0042404388 
  204600     1.583505 -0.0082025146    2.2761371    4.6417526 0.0018477131 
  204800    1.6285466 -0.010210099    2.2102324    4.6413617 -0.0063000805 
  205000    1.6262621 -0.0072213966      2.21048    4.6411734    0.0084869 
  205200    1.6034491 -0.0085436541    2.2463536     4.641526 -0.003853704 
  205400    1.6035562 -0.0078213639    2.2457816    4.6418368  -0.01010547 
  205600    1.6245846 -0.0064873258    2.2122099    4.6411225 0.0026309399 
  205800    1.5718049 -0.0076357002    2.2926958    4.6413384 0.00078629686 
  206000    1.5924365 -0.0063450152    2.2607508    4.6416129 -0.0021715149 
  206200    1.6419054 -0.0088429211    2.1891863    4.6417089 0.0044766287 
  206400    1.6329558 -0.0039098849    2.1977159    4.6417552 0.0043905595 
  206600     1.592184 -0.004128419    2.2594407    4.6421408 0.0052404508 
  206800     1.678747 -0.0062759756    2.1318697    4.6421881 -0.00092948982 
  207000    1.6353423 -0.0069067359    2.1979163    4.6425363 -0.0016445854 
  207200    1.6268566 -0.0095548314    2.2137655    4.6430166 -0.0013198005 
  207400    1.6108682 -0.007762404     2.235736    4.6428115 0.0055653001 
  207600    1.6194514 -0.0063693012    2.2220784    4.6434139 0.00087961996 
  207800    1.6573107 -0.0067365932     2.165536    4.6432588  0.012415885 
  208000    1.6224332 -0.0071895767    2.2191564    4.6441418 -0.0016746211 
  208200    1.6365472 -0.0087335432    2.1992726    4.6438721 -0.0022624214 
  208400    1.6019066 -0.0069601398    2.2495727    4.6440162 0.0046127629 
  208600    1.6236801 -0.0067983555    2.2165397    4.6437854 0.0049274658 
  208800    1.6429945 -0.0071322419    2.1878916    4.6437574 -0.00031734768 
  209000    1.6173323 -0.0086546164    2.2282993    4.6441728 0.0057219797 
  209200    1.6088348 -0.0067889678    2.2395479    4.6445485 0.0032276104 
  209400    1.6095967 -0.0084168976    2.2403451      4.64486 0.0029198144 
  209600    1.5741454 -0.0091903968    2.2945395    4.6451362 -0.0014290564 
  209800    1.5892027 -0.0067303465     2.269451      4.64508 -0.0042974661 
  210000    1.6357739 -0.008847667    2.2014539      4.64478 0.00019956544 
  210200    1.6473874 -0.0086743893    2.1845482    4.6454572 0.0044052297 
  210400    1.6313205 -0.0091988294    2.2092598    4.6455587 -0.0015017746 
  210600    1.6433256 -0.0083771764    2.1910815    4.6461988 -0.0010853993 
  210800    1.6571815 -0.0064298631    2.1686828    4.6465187  0.010716406 
  211000    1.6171866 -0.0076073565     2.230373    4.6470755 -0.0011076999 
  211200    1.6339167 -0.0066306134    2.2047302    4.6474892 -0.0033473543 
  211400    1.6013547 -0.0069083697    2.2538797    4.6475476 -0.0039176651 
  211600    1.6328326 -0.0049735446    2.2053214    4.6481125  0.009781929 
  211800    1.6488693 -0.0063194574    2.1824183    4.6479038 0.0044125347 
  212000    1.6217326 -0.0074856516    2.2246554    4.6482944 0.0040872572 
  212200    1.6533274 -0.0076206126    2.1770059    4.6478734 -0.0016353666 
  212400    1.6549666 -0.0097202798    2.1766176    4.6478426 -0.0015528765 
  212600    1.6154186 -0.012333733    2.2391087    4.6484343 0.0080055847 
  212800    1.6316528 -0.013345489    2.2153844    4.6480348 0.0041076452 
  213000    1.5965559 -0.0097358425    2.2646344     4.648281 -0.003646757 
  213200    1.6204691 -0.0067925445    2.2257813    4.6482193 0.0017739255 
  213400    1.6330875 -0.0082324448    2.2082963    4.6482105 0.0051075218 
  213600    1.6691356 -0.0081873108    2.1540923     4.648091 0.0045951375 
  213800    1.6006521 -0.0087362154    2.2580206    4.6488075 0.0026333207 
  214000    1.6486973 -0.008573389     2.185569    4.6485427 0.0038939559 
  214200    1.6236087 -0.0086038112    2.2234124    4.6487456 -0.00019797558 
  214400    1.6025877 -0.0061770678    2.2528824    4.6491299 0.0032748013 
  214600    1.6090744 -0.006566006    2.2431709    4.6487536 0.0020231538 
  214800    1.6155339 -0.0077742494    2.2352461    4.6493041 0.0033019028 
  215000     1.613541 -0.0087421192     2.238835    4.6489375 0.0045167321 
  215200    1.6301613 -0.010324838    2.2156276    4.6490628 -3.8967335e-05 
  215400    1.5958964 -0.009585484    2.2668632    4.6496716 -0.0068104815 
  215600    1.6168748 -0.0078224713    2.2334692    4.6494891 0.0054936022 
  215800    1.6033733 -0.0086832934     2.255026    4.6499451 -0.00024010501 
  216000    1.5911679 -0.0081856192    2.2732465    4.6503662 -0.002727199 
  216200    1.6423767 -0.0077415602    2.1954553    4.6497857 0.0028661025 
  216400    1.6191702 -0.0080046651    2.2313061    4.6505847 0.0023620623 
  216600     1.586771 -0.0071241814    2.2792055    4.6507953 0.0037047166 
  216800    1.6542198 -0.0072108243    2.1784914    4.6511064 0.0051160552 
  217000    1.6428208 -0.0062717134      2.19503     4.651496 -0.0013363838 
  217200    1.6089444 -0.0044870656    2.2442318    4.6516987 -0.0026546261 
  217400    1.6439413 -0.0067086638    2.1941062     4.651815 0.0024873506 
  217600    1.6024499 -0.0095077818    2.2592781    4.6519884 -0.0031280255 
  217800    1.6081057 -0.0065354773    2.2480224    4.6521836 0.0040452598 
  218000    1.6126272 -0.0066419361    2.2413105    4.6521433 0.00013385046 
  218200    1.6182423 -0.0071829925    2.2341696    4.6528789 0.0029121475 
  218400    1.6154761 -0.0065213103     2.237965    4.6531892 -0.0016628765 
  218600    1.6112515 -0.0059051298    2.2434049    4.6529122 0.0013877686 
  218800    1.6374418 -0.0085567371    2.2067753    4.6528927 -0.0010618218 
  219000    1.6396413 -0.0065807085    2.2018992    4.6532899  0.005721702 
  219200    1.6109693 -0.0074756744    2.2464305    4.6539443 -0.00045116311 
  219400    1.6467632 -0.0030505969    2.1879466    4.6535438 -0.0050966183 
  219600    1.5907366 -0.0099990233    2.2796561    4.6543159 0.0038158404 
  219800    1.5733323  -0.01080089    2.3068856    4.6546529 -0.00035032203 
  220000    1.6268882 -0.012048441    2.2278243    4.6546292 0.0088547704 
  220200    1.6323264 -0.013511927    2.2209151    4.6544088 -0.0041841175 
  220400    1.6306342 -0.0073645746    2.2177242    4.6548285 -0.00080086024 
  220600    1.5425859 -0.007434522    2.3501154    4.6551574 -0.0010453799 
  220800    1.6065192 -0.0057162896    2.2524569    4.6550589 -0.011016187 
  221000    1.6536952 -0.0076242854     2.184026    4.6554412 0.0055366007 
  221200     1.577551 -0.0088565908    2.2997147    4.6557505 -0.0075825558 
  221400    1.6189471  -0.00754742    2.2360012    4.6554026 -0.00061194114 
  221600    1.5900978 -0.0097791857    2.2814338    4.6553558 0.00051028862 
  221800    1.6433719 -0.0042710161     2.196312    4.6556048 0.0020150145 
  222000    1.6331434 -0.0076243952    2.2150225    4.6556285 0.00034853313 
  222200    1.6264486 -0.0081122504    2.2258788    4.6559608 0.0087603173 
  222400    1.6397816 -0.0050158291    2.2027987    4.6559646 -0.0037873896 
  222600     1.651392 -0.0060772965    2.1863996     4.655909 0.0019082812 
  222800    1.6178145 -0.0095531017    2.2403775    4.6560754 0.0039072928 
  223000    1.5841337 -0.0055027594    2.2873299    4.6565876 -0.0015157588 
  223200    1.5969821 -0.0064598027    2.2688707    4.6564323 -0.00039188512 
  223400    1.5846848 -0.0074162169    2.2886039    4.6567743 -0.0044475722 
  223600    1.6382866 -0.008748658    2.2102045    4.6573963 0.00052071231 
  223800    1.6114164 -0.0084927806     2.249952    4.6571188 0.0017125678 
  224000    1.6253016 -0.0079203531    2.2286797    4.6572341 -0.0074450853 
  224200    1.6484603 -0.010696169    2.1968136    4.6573093 0.0060471318 
  224400    1.6094692  -0.00716784    2.2525374    4.6581101 -0.0060265199 
  224600    1.6279481 -0.0076960515    2.2253361    4.6580822 -0.00069917353 
  224800     1.641524 -0.0051826238    2.2019432    4.6575542 0.0055253517 
  225000    1.6308742 -0.0072299209    2.2200382     4.657637 -2.5998825e-05 
  225200    1.6120595 -0.007009412    2.2484567    4.6580709 -0.0078540236 
  225400    1.5924304 -0.0073379256    2.2784666    4.6583265 0.0063893222 
  225600    1.6151849 -0.0088380749    2.2459858    4.6584568 0.0047300642 
  225800    1.6631128 -0.0086977843    2.1741189    4.6585785 0.0047926294 
  226000    1.6227186 -0.0071580558    2.2329011    4.6583457 0.0015623708 
  226200    1.6312869 -0.0074840831    2.2205616    4.6585249 0.0050666391 
  226400    1.6224507 -0.010157552    2.2362638    4.6583074 0.0019372625 
  226600     1.601119 -0.0097223862     2.267347    4.6578476 0.0011836634 
  226800    1.5845439 -0.011570102    2.2946933    4.6584986 -0.0028690782 
  227000     1.604595 -0.0092743126    2.2619614    4.6581209 0.0034295538 
  227200    1.6303653 -0.0094696497    2.2234008     4.657997 -0.00016440686 
  227400    1.5947529 -0.0099330017    2.2775755    4.6583221 -0.0024729246 
  227600    1.6221937 -0.0067280665    2.2337301     4.658818 0.0048998959 
  227800    1.6692197 -0.010586994    2.1663716    4.6580967 0.0045468536 
  228000    1.6629397 -0.0093948373    2.1749315    4.6584344 -0.0012310895 
  228200    1.6296167 -0.0080357629    2.2238949    4.6588027  0.001281047 
  228400    1.6385482 -0.0074124192    2.2106609    4.6595812  0.005934681 
  228600    1.6266291 -0.0072254983    2.2289148    4.6601543 -0.0057156061 
  228800     1.619351 -0.0041687751     2.236708    4.6600936 0.0028103216 
  229000    1.6498775 -0.010274872     2.197685    4.6607265 0.0029643416 
  229200    1.6371389 -0.0098616959    2.2171446    4.6615028 -0.0048923743 
  229400    1.6058366 -0.0091701066    2.2635508    4.6616758 -0.0013082666 
  229600    1.6275526  -0.01023461    2.2322678    4.6618824 0.0017748023 
  229800    1.6031608 -0.0082115155    2.2667721    4.6618444 -0.0062904133 
  230000     1.642272 -0.0046684565    2.2051834    4.6624301 0.0066640594 
  230200     1.585386 -0.007274121    2.2927308    4.6620945 -0.00019312828 
  230400     1.637786 -0.0070554614    2.2137039    4.6618385 0.00044467915 
  230600    1.6917429 -0.0079052816    2.1335524    4.6617235 0.0062904675 
  230800    1.6435975 -0.0094714031    2.2075833     4.662014 0.0066167542 
  231000    1.5673581 -0.0065083913    2.3200554    4.6631594  0.003980501 
  231200    1.6420884 -0.0073978836    2.2084343    4.6626762  0.011216373 
  231400    1.6398156 -0.0055123088    2.2099187     4.662639 -0.0012657865 
  231600    1.6140555 -0.0060578183    2.2497295    4.6632875 0.0062554109 
  231800    1.5852678 -0.0064530988    2.2930313    4.6630387 0.00062898088 
  232000    1.6213598 -0.0022483788    2.2347095    4.6630268 0.0064090501 
  232200    1.6179032 -0.0064282361    2.2447118    4.6636676 -0.001353375 
  232400     1.611096 -0.0068186462    2.2561115    4.6644723 -0.00017310905 
  232600    1.5793495 -0.0069131192    2.3037223    4.6643976 -0.007974929 
  232800      1.61494 -0.0078146043    2.2514835    4.6646109 0.0065680224 
  233000    1.5842166 -0.005318945    2.2958872     4.665453 0.00073598778 
  233200    1.6496884 -0.0067699591    2.1986755    4.6649385 -0.0025603739 
  233400    1.6335864 -0.0060103227    2.2222241    4.6651084 0.0014778022 
  233600    1.6415395 -0.0077960805    2.2119461     4.664967 0.0063235587 
  233800    1.6547573 -0.0055904039    2.1900369    4.6650781 -0.00072715411 
  234000    1.6586412 -0.0060785251    2.1851626     4.665538 -0.00068329876 
  234200    1.6368807 -0.0068216088    2.2190094    4.6660208 0.0072043731 
  234400    1.6266482 -0.0063817378    2.2340808    4.6661926 -0.0049886218 
  234600    1.6369212 -0.0065500291    2.2186204     4.665964 -0.0019763692 
  234800    1.6117979 -0.0060096545    2.2560895    4.6663114 0.0031405502 
  235000    1.6385912 -0.0086091005    2.2189459     4.666734 -0.0017556957 
  235200    1.6184579 -0.0080866226     2.248576     4.666705 -0.0025208611 
  235400    1.6426974 -0.0091696223    2.2139234    4.6673065 0.0048242503 
  235600    1.6083412 -0.011646021     2.268097    4.6675007 -0.0027549281 
  235800    1.6292251 -0.010013558    2.2352907    4.6676337 0.0029999503 
  236000    1.6596639 -0.009960224    2.1894247    4.6674515 0.0090237906 
  236200    1.6465011 -0.012115735    2.2117829     4.667922 -0.0036534066 
  236400    1.6628148 -0.0075598206    2.1825422     4.667693 -0.004060165 
  236600    1.6145434 -0.0052544175    2.2532547    4.6683476 0.0054525056 
  236800    1.6030375 -0.0077706101    2.2728934    4.6682217 -0.00095345883 
  237000    1.6434237 -0.0063403061    2.2112884    4.6685895 -0.0064991371 
  237200    1.6336412 -0.0092787589    2.2288862    4.6685842 -0.0068243983 
  237400    1.6542353 -0.010201664    2.1989136     4.668561 0.00070373832 
  237600    1.6622618 -0.0089176014    2.1848069    4.6677709  0.005829699 
  237800    1.6430662 -0.008499158    2.2141764    4.6687829 0.0021216517 
  238000    1.6199945 -0.0091568843    2.2496175    4.6689797 -0.0036349665 
  238200    1.6885806 -0.0096653273    2.1464821    4.6681525 0.0010607299 
  238400    1.6155543 -0.008623741    2.2551634    4.6684025 -0.00087969012 
  238600    1.6154346 -0.0088657665    2.2556669    4.6684846 0.0023674622 
  238800    1.6399516 -0.0096630896    2.2196504    4.6684239 -0.0080200572 
  239000    1.6177383 -0.0099480685    2.2537706    4.6689593 0.0031566081 
  239200    1.6220489 -0.0095120652    2.2469709    4.6690577 0.0039590013 
  239400     1.613567 -0.0076855814    2.2581609     4.669359 -0.0051926534 
  239600    1.6760151 -0.0078895725    2.1642918    4.6689013 0.0054837609 
  239800    1.6688038 -0.010681262    2.1779145    4.6689218 0.0076681027 
  240000    1.6146004 -0.010168683    2.2592861    4.6695502 -0.0027911093 
  240200    1.6445893 -0.008251274    2.2121308    4.6692684 0.00044417144 
  240400    1.5928847 -0.014012202    2.2965112     4.670378 0.00026914509 
  240600    1.6145208 -0.010359209    2.2601809    4.6701351 -0.0030362665 
  240800    1.6310417 -0.0093845699    2.2353418    4.6710371 0.0029649325 
  241000    1.6005584 -0.008272987    2.2804191    4.6715287 -0.0011719223 
  241200     1.657023 -0.011411516    2.1984771    4.6710937 0.0013275142 
  241400    1.6622632 -0.0088822471    2.1882407    4.6712422 0.0058302157 
  241600    1.6807403 -0.0065596065    2.1579042    4.6709271 0.0088050293 
  241800       1.6124 -0.0086234077    2.2630796    4.6715903 -0.0011348919 
  242000    1.6403865 -0.0089600674    2.2213856     4.671514 0.0049933231 
  242200    1.6000136 -0.0076109153    2.2803801    4.6713349 0.0058199029 
  242400    1.6186338 -0.0073131986    2.2528253    4.6719913  0.001192502 
  242600    1.6002655 -0.0077091559    2.2806983    4.6719326 0.0019623975 
  242800    1.6182583 -0.0067113903    2.2533665    4.6725714 -0.00082681174 
  243000    1.6214821 -0.0063800692    2.2481939    4.6725629 -0.0024907761 
  243200    1.6520198 -0.004629672    2.2005621    4.6724603 0.0089451085 
  243400    1.6225501 -0.0069519905    2.2471621    4.6725602 -0.00061035286 
  243600    1.6056484 -0.0061842374    2.2723554     4.673184 -0.003097223 
  243800    1.6142693 -0.0064461121    2.2599962    4.6734865 0.0077938619 
  244000    1.6058263 -0.0032877692     2.269991    4.6739829  0.003237059 
  244200    1.6314622 -0.0065072418    2.2348703    4.6740732 -0.0021495836 
  244400    1.6269734 -0.0094105288    2.2445558    4.6741263 0.0047397729 
  244600     1.618821 -0.0088523359    2.2560858    4.6739933 -0.00055094002 
  244800    1.6321815 -0.0063838722    2.2342632    4.6746677 -0.0024098789 
  245000    1.6197627 -0.0063176886     2.252699    4.6745528 -0.0015997888 
  245200    1.6830646 -0.0057372991    2.1570166    4.6743461 -7.8435486e-05 
  245400    1.6675462 -0.0066260477    2.1813015    4.6744789 0.0021307238 
  245600    1.6431662 -0.0088325177    2.2204485    4.6748715 0.0067869823 
  245800    1.6180503 -0.0085599913    2.2578462    4.6748908  0.006604979 
  246000    1.6126219 -0.0055551465    2.2637729    4.6756846 -0.0051942773 
  246200    1.6229373 -0.0082351019    2.2507978    4.6754933 -0.00072598552 
  246400    1.6296141 -0.008219081    2.2406452    4.6753658 -0.0012397549 
  246600    1.6374199 -0.0099687209    2.2308384    4.6755109 0.0044214403 
  246800    1.6499398 -0.0091201408    2.2116992    4.6759888 -0.0012842055 
  247000    1.6114554 -0.010247434     2.270884    4.6763547 -0.000677489 
  247200    1.6278274 -0.0064618713    2.2421935    4.6759929 0.0035705998 
  247400    1.6483586 -0.0068657089    2.2119608    4.6761345 0.0051107351 
  247600    1.6416508 -0.0063152781      2.22157    4.6762385 0.0050897743 
  247800    1.6030741 -0.0046318442    2.2781969    4.6767188 -0.001453064 
  248000    1.6228176 -0.0061984421    2.2499694    4.6765221 -0.0011153472 
  248200    1.6578546 -0.0036214458    2.1950055    4.6766587 0.0081277337 
  248400     1.601118 -0.0065578555    2.2834446    4.6771082 0.0069488023 
  248600    1.6496448 -0.010661688    2.2147255    4.6770314 -0.002893311 
  248800     1.671688 -0.0095241266    2.1805565    4.6770447 0.0022531726 
  249000    1.6026199 -0.011675844    2.2869988     4.677796 0.0072427181 
  249200     1.600851 -0.0098161733    2.2873484    4.6773534 -0.0014888581 
  249400    1.6324311 -0.011256815    2.2413206    4.6772264 0.0028737205 
  249600    1.5872913 -0.010610463    2.3094047    4.6782882 -0.0025895347 
  249800    1.6359646 -0.0098607583    2.2355504    4.6781492 -0.0028754004 
  250000    1.6514296 -0.011191791    2.2136787      4.67813 0.0066616437 
  250200    1.6072631 -0.0086415131    2.2777952    4.6785872 0.0047524304 
  250400    1.6352373 -0.010540534    2.2372498    4.6780786 -0.0029798557 
  250600    1.6389547 -0.011981604    2.2332285     4.678189 0.0004006754 
  250800    1.6238086 -0.013087641    2.2580312    4.6791804 0.00071323648 
  251000    1.6136206 -0.013079486    2.2733599    4.6792444 0.0075968161 
  251200    1.6340547   -0.0116605    2.2412027    4.6791387  0.004108893 
  251400    1.6313599  -0.01129833    2.2449144    4.6791728 -0.0039893737 
  251600    1.6088022 -0.011040176    2.2791191    4.6798196 -0.0038586902 
  251800    1.6793877 -0.013158797    2.1756335    4.6800295  0.010153046 
  252000    1.6498592 -0.010535985    2.2172932    4.6800462 0.0035778348 
  252200     1.641404 -0.0086894551    2.2284553    4.6803797 0.0025002427 
  252400    1.6263374 -0.0090477323    2.2524019    4.6813818 0.0024040635 
  252600    1.6304486 -0.0094578318     2.246901     4.681634 -0.0025731215 
  252800    1.6332639 -0.0071312099    2.2405069    4.6817867 -0.0022905003 
  253000    1.6637909 -0.0084355133    2.1961252    4.6818635 0.0086743852 
  253200    1.6424279 -0.0090686298    2.2287688    4.6818489 0.00022598307 
  253400    1.6225986 -0.0091348332     2.258819    4.6821071 0.0043600594 
  253600    1.6096563 -0.0068321984    2.2765222    4.6827112 0.0087161042 
  253800    1.5943916 -0.0075202507    2.3002367    4.6828544 -0.0051975808 
  254000    1.6616883 -0.0077359699    2.1993711     4.682657 0.0024358553 
  254200    1.6505138 -0.0075411646    2.2159752    4.6827042 0.0069591662 
  254400    1.6210351 -0.0065939457    2.2599595    4.6834445 0.00015869054 
  254600    1.6371231 -0.0061566907    2.2353962    4.6834359 -0.0047723152 
  254800    1.6249972 -0.007991358    2.2566206    4.6846478 0.0095012647 
  255000    1.6787014 -0.0043071552    2.1727225    4.6849414 0.0041100507 
  255200     1.596315 -0.0076851743     2.300367    4.6857031 0.0034794621 
  255400    1.6472807 -0.0083719494    2.2250849    4.6861364 0.0057738645 
  255600     1.641178 -0.0077037423    2.2338835    4.6864548 -0.0034885766 
  255800    1.6786757 -0.0055159319    2.1755608    4.6865323 0.0046927218 
  256000    1.6001217 -0.0067244733    2.2944797    4.6864831 -0.0011578509 
  256200    1.6199594 -0.0070003137    2.2653948    4.6868608 -0.0011292454 
  256400      1.63861 -0.0056590645    2.2360088    4.6867751 0.0061422521 
  256600    1.6536267 -0.0055599158     2.213694    4.6870707 0.0025450544 
  256800    1.6511636 -0.0077390048    2.2195444    4.6870497 -0.0048612789 
  257000    1.7036916 -0.0083789584    2.1412434     4.686853  0.012957947 
  257200    1.6200758 -0.0076458541    2.2667559    4.6877509 0.00080917782 
  257400    1.6361488 -0.0077214189    2.2424157    4.6874301 -0.0060335979 
  257600    1.6509265 -0.0071246204     2.220083    4.6878472 0.00088934296 
  257800     1.655844 -0.0080518641    2.2135455    4.6877543 0.0077311756 
  258000    1.6577534 -0.0093130921    2.2121721     4.687982 -0.0007440246 
  258200    1.6208866 -0.0056986749      2.26369    4.6878476 0.0084302807 
  258400    1.6212038 -0.0076578224    2.2656095    4.6882836 0.0015036769 
  258600    1.6424201 -0.006373254    2.2326058    4.6883696 -0.0044973981 
  258800    1.6657054 -0.0076767673    2.1994196    4.6887867 0.00055813348 
  259000    1.6327733 -0.0083908043    2.2497809    4.6890657 0.0038461865 
  259200    1.6812795 -0.0076120997    2.1760067    4.6887854 0.0016673028 
  259400      1.63185 -0.0071621322    2.2504223    4.6895516   -0.0049665 
  259600    1.6201325 -0.0078164133    2.2683406    4.6892501 0.0012748109 
  259800    1.5839917 -0.0062971788    2.3215995    4.6898499 -0.0044207579 
  260000     1.597216 -0.0076212953    2.3027285    4.6894792 -0.0017577813 
  260200    1.6325101 -0.0074982053     2.250079    4.6898619 0.0078919295 
  260400    1.6407028 -0.0082359434    2.2387811    4.6901078 0.0010514303 
  260600    1.6280269 -0.0078570563     2.257417    4.6901203 -0.0060402522 
  260800    1.6545657 -0.0058137169    2.2154531    4.6899838 0.0023654753 
  261000    1.6482666 -0.0054267559    2.2251873     4.690662 0.0056785245 
  261200    1.6175978 -0.0075323359    2.2734666    4.6908604 -0.00024890956 
  261400    1.6646378 -0.0065984868    2.2016642    4.6905092 0.0045391358 
  261600    1.6326131 -0.0088192251    2.2520493    4.6906656 -0.0015285621 
  261800    1.6437773 -0.004549014    2.2314976    4.6911203 0.00036420226 
  262000    1.6193121 -0.005180269    2.2691071    4.6914229 0.00071503955 
  262200    1.6656445 -0.0078662717     2.201881    4.6909672 0.0060751006 
  262400    1.6517839 -0.0080793435    2.2231893    4.6912841  0.001417862 
  262600    1.6291156 -0.0053840588    2.2549888    4.6917972 0.0023717685 
  262800    1.6460925 -0.0047771719    2.2297022    4.6925673 0.0063018583 
  263000    1.6352061 -0.0062630713    2.2472916    4.6923511 0.0036493316 
  263200    1.6301576 -0.004349054    2.2532577     4.692663 0.0029646525 
  263400    1.6355518 -0.0059592905    2.2467534    4.6926349 0.0031749753 
  263600    1.6121457 -0.0059064793    2.2823584    4.6932049 -0.00072592324 
  263800     1.618642 -0.0078475223    2.2740268    4.6926707 0.0011011249 
  264000    1.6577424 -0.0080278025    2.2155295    4.6926083 0.0095163324 
  264200    1.6354868 -0.0064741365    2.2475093    4.6927786  0.003456648 
  264400    1.6452459 -0.0070145363    2.2339762    4.6933348   0.00269078 
  264600    1.6826139 -0.0072770528    2.1780257    4.6931399 -0.0051171342 
  264800      1.64037 -0.0059092401     2.240385    4.6935394 -0.0048443476 
  265000    1.5777784 -0.0040788348    2.3331167    4.6942711 -0.0011553565 
  265200    1.6467536 -0.0059805185    2.2312805    4.6939332 0.0041198606 
  265400    1.6085102 -0.0037069441     2.286433    4.6940291 -0.0019948622 
  265600    1.6551136 -0.0051336701    2.2178356    4.6938677 0.0016073199 
  265800     1.602903 -0.0055034155    2.2968313    4.6942251 -0.0062742342 
  266000    1.6494935 -0.0046294422    2.2262304    4.6943417 0.0028810489 
  266200    1.6483918 -0.0061221221    2.2299139     4.694881 -0.0071921297 
  266400    1.6531253 -0.0060467444    2.2227438    4.6948821 0.0039245304 
  266600     1.652876 -0.0075142273    2.2245742    4.6948713 0.0054567359 
  266800     1.622478 -0.0063298806    2.2695408     4.695453 0.0040489279 
  267000    1.6568728 -0.010426509    2.2224993    4.6958756 0.0019943593 
  267200    1.6440322 -0.0099928497    2.2414266    4.6959874 0.0056201774 
  267400    1.6334187 -0.0094865266     2.257487    4.6966435 -0.0050413007 
  267600    1.6492137 -0.010796774    2.2353111    4.6968356  0.014051171 
  267800    1.6286365 -0.012539028    2.2679984    4.6969336 -0.0010661052 
  268000    1.6450332 -0.011409533    2.2427693     4.697414 0.0022491303 
  268200    1.6665697 -0.0085394673    2.2071287    4.6969287 -0.0065017216 
  268400    1.6439757 -0.0046742227    2.2379023    4.6976972 0.0030853351 
  268600    1.6329016 -0.0082604082    2.2584466    4.6980541  0.003999864 
  268800    1.6345098  -0.01065045     2.257794    4.6974224  0.004491041 
  269000    1.6293397 -0.011567347    2.2661497    4.6971107 0.0059084533 
  269200    1.6424406  -0.01192522    2.2467184    4.6969609 0.0070838724 
  269400     1.650121 -0.014533512    2.2376435    4.6967913 -0.0065463808 
  269600    1.6699855 -0.0099159549    2.2035194    4.6970636 -0.0034912536 
  269800    1.6536842   -0.0117733    2.2294908    4.6967405 0.0038547121 
  270000    1.6543524 -0.012255943    2.2299989    4.6977676 0.0036810801 
  270200    1.6461521 -0.012188088    2.2415228    4.6970663 -0.00013478406 
  270400    1.6773537 -0.011649878     2.193933    4.6967888 0.0010045044 
  270600    1.6237411 -0.011505339    2.2746151    4.6972452 0.0017116983 
  270800    1.6450038 -0.011960209      2.24355    4.6976001 0.0063393171 
  271000    1.6258396 -0.013297511     2.273783    4.6977669 -0.0043556604 
  271200    1.6469193 -0.010313789    2.2402415    4.6988095 -0.0045281393 
  271400    1.6456254  -0.01064192    2.2420058     4.698306 0.0064240437 
  271600    1.6374901 -0.006550786    2.2504233     4.698619 -0.0013940141 
  271800    1.6294519 -0.011296461    2.2665415    4.6979416 -0.0056442278 
  272000    1.6965671 -0.0098675742    2.1643303    4.6977711 0.0079059194 
  272200     1.685376 -0.0096898825    2.1812281      4.69807 -0.0011305861 
  272400    1.5934324 -0.010098134    2.3201787    4.6987805 -0.0091921005 
  272600     1.581457 -0.0077211242    2.3362905    4.6993171 -0.00070726133 
  272800    1.6081445 -0.0089505901     2.298011    4.6998153  0.002915812 
  273000    1.6691331 -0.0095296157    2.2068579    4.6995106 0.0011994187 
  273200    1.6431676 -0.008243539     2.244739     4.699753  0.008556518 
  273400    1.6613433 -0.0078385059    2.2169085    4.6995747  0.003953222 
  273600    1.6414283 -0.0069770241    2.2461846    4.6998578 0.0054282577 
  273800    1.6555645 -0.008858961    2.2270137    4.6999964 0.0031568402 
  274000    1.6365707 -0.010224547     2.257317    4.7004606 0.0034519871 
  274200    1.6379486 -0.011214522    2.2562764    4.7004958 0.0087054558 
  274400    1.6501173 -0.009256992    2.2362036    4.7006225 -0.0003764367 
  274600    1.6523681 -0.004608273    2.2283066    4.7007484 -0.0018339852 
  274800    1.6259387 -0.0042291464    2.2678435    4.7010443 0.0071112852 
  275000    1.6354034 -0.0049973259    2.2547046    4.7013257 0.0010953889 
  275200    1.6747319 -0.0066202002    2.1979329     4.701888 0.0069523047 
  275400    1.6209224 -0.0082532018    2.2802379    4.7018948 0.0006505686 
  275600    1.6770262 -0.0056382639    2.1939531    4.7023296   0.00834459 
  275800    1.6425353 -0.0071649005    2.2474501    4.7025949 -0.00038870308 
  276000    1.6416517 -0.0046958336    2.2463888    4.7026782 0.00045718308 
  276200    1.6192768 -0.0066960448    2.2823594    4.7031065 -0.0011038887 
  276400    1.6544519 -0.0075308879     2.230803     4.703446 0.0051010638 
  276600    1.6363413 -0.0058553535    2.2565504    4.7037195  0.002007016 
  276800    1.6336797 -0.0083519366    2.2631429    4.7038254 0.0021851516 
  277000    1.5965325 -0.0093752574    2.3205556    4.7045277 0.0052698913 
  277200    1.6081967 -0.010721716    2.3045904    4.7047018 -0.001799833 
  277400    1.6624704 -0.010507161    2.2233939     4.705081 0.0026059095 
  277600    1.6617243 -0.0098808055    2.2241187    4.7053137 -0.0038751831 
  277800    1.6267479 -0.0095472355    2.2763802     4.705476 0.0012081489 
  278000    1.6143725 -0.0085452379    2.2941135    4.7056594 0.00037047785 
  278200    1.6181699 -0.0085141836    2.2884821    4.7057517 -0.0012406606 
  278400    1.6202947 -0.0097868981    2.2868822    4.7060643 -0.0029802684 
  278600    1.6275719 -0.0080748652    2.2744985    4.7063019 0.0007603682 
  278800    1.6103688 -0.0095318634    2.3024292    4.7069865 -0.00083318603 
  279000    1.6447463 -0.008783419    2.2494446    4.7062854 0.0089558687 
  279200     1.618443 -0.0074229801     2.288418    4.7071882 -0.0062774344 
  279400    1.6528837 -0.0086078672    2.2375712    4.7067862 0.0025756109 
  279600    1.6316648 -0.0088518463    2.2698965    4.7070585  0.011234062 
  279800    1.6017599 -0.0070407726    2.3130977    4.7072406 -0.0021419749 
  280000     1.639688 -0.0096700992    2.2586779    4.7070492 0.00074468375 
  280200    1.6406788 -0.0028878311    2.2521867    4.7088255 -4.5265056e-05 
  280400    1.6157114 -0.0082078349    2.2942767    4.7081672 0.00096044568 
  280600    1.6108214 -0.0049043456    2.2985557    4.7084191 0.0017668421 
  280800     1.690893 -0.0072713137    2.1807462    4.7082773  0.012349409 
  281000    1.6401017 -0.0083206345    2.2585633    4.7089042 -0.0039926637 
  281200    1.6310898 -0.0044209061    2.2682889    4.7090199 -0.001261566 
  281400     1.612456 -0.0047223601    2.2965391    4.7090349 -0.00032886509 
  281600    1.6717629 -0.0051671449     2.207701    4.7086585 0.0073341177 
  281800    1.6306178 -0.0065772727    2.2711464    4.7090135 -0.003496093 
  282000    1.6639199 -0.0055849501    2.2201401    4.7089223 0.0033740184 
  282200    1.6270685 -0.0060579912      2.27611    4.7091756 -0.0018773061 
  282400    1.6321157 -0.0070731732    2.2699986    4.7096153 0.0082102433 
  282600    1.6781242 -0.0084155564    2.2023812    4.7096264 0.0055754126 
  282800    1.6716379  -0.01113749    2.2149853    4.7097851 0.0044012539 
  283000    1.6326472 -0.0084074484    2.2716705    4.7107495 0.0027508356 
  283200    1.6859839 -0.0073760752    2.1908075    4.7108745 0.0013782697 
  283400    1.6370038 -0.0094696989    2.2664499    4.7109976 -0.0058311314 
  283600    1.6715888 -0.0084433052    2.2137848    4.7112051 0.0032330201 
  283800    1.6174913 -0.012075559     2.298689      4.71138 -0.0022621495 
  284000    1.6447715 -0.0099968851    2.2557823    4.7114474 -0.00087734807 
  284200    1.6326163 -0.011688886    2.2757301    4.7114814 0.0065076152 
  284400    1.6152791 -0.014902587    2.3052061    4.7117538 -0.00040008577 
  284600    1.6334652 -0.0097983175    2.2739643    4.7128787 0.0029391118 
  284800    1.6781241 -0.013078277    2.2095683    4.7121506  0.002751303 
  285000    1.6605918 -0.011676849    2.2350922    4.7127934 -0.00046755749 
  285200    1.6568706 -0.012702127    2.2414592    4.7125567 -0.0025705036 
  285400    1.6099468 -0.0090436694       2.3086    4.7130129 -0.00070360505 
  285600    1.6311114 -0.0080097684    2.2754709    4.7126454 0.0024020261 
  285800    1.6109824 -0.0091648649    2.3072485    4.7130926 -0.0029754806 
  286000    1.5886799 -0.0071237715    2.3388922     4.713344 0.0019572884 
  286200    1.6298976 -0.0060233821    2.2763864    4.7137277 -0.00031065281 
  286400    1.6258475 -0.0079148519    2.2843939    4.7137721 -0.0015082437 
  286600    1.6792412 -0.0085157834    2.2049141    4.7137335 -0.0030275905 
  286800    1.6727109 -0.012194668     2.218933     4.714284 0.0033964107 
  287000    1.6338012 -0.008924034     2.274281    4.7145735 0.0023041765 
  287200    1.6378854 -0.0078870926    2.2673863    4.7148384 -0.0068463727 
  287400    1.6351873 -0.0074429097    2.2712749    4.7151264 0.00023620236 
  287600    1.6450304 -0.0071745039    2.2563927    4.7152683 -0.0036799646 
  287800    1.6999902 -0.0094652107    2.1761456    4.7151202 -0.0011820024 
  288000    1.6334295 -0.0075203844    2.2746905    4.7158295 0.0063283093 
  288200    1.6676855 -0.0090114648    2.2246906    4.7156914 0.0067417451 
  288400    1.6869094 -0.0090451658    2.1959719    4.7157574 0.00040616904 
  288600    1.6243652 -0.0042793343    2.2856701    4.7164618 -0.0061594563 
  288800    1.6299185 -0.0067219731    2.2795407    4.7162148 0.0054120702 
  289000    1.6541413 -0.006379418    2.2432182    4.7165471 0.0041072396 
  289200    1.6448624 -0.0072643608    2.2580042    4.7165381 0.00077945775 
  289400    1.6482499 -0.0070678939    2.2529434    4.7167519 0.0022554947 
  289600    1.6567812 -0.0089976911    2.2426088    4.7172768 -0.0069407805 
  289800    1.6453733 -0.0084212413    2.2588891     4.717032 0.0048969805 
  290000     1.632607 -0.0056140869    2.2756291    4.7174412 0.0046544634 
  290200    1.6107504 -0.011588313    2.3145203    4.7175933 -0.0064456573 
  290400    1.6340608 -0.0073534845    2.2765375    4.7187896 -0.0023955205 
  290600    1.6728749 -0.0067704637    2.2173023    4.7183234 0.0014075513 
  290800    1.6169699 -0.0072076107    2.3017754    4.7185526 0.0013268965 
  291000    1.6502077 -0.010127543    2.2552624    4.7189462  0.013311059 
  291200    1.6706398 -0.0085398609    2.2230676    4.7189687 0.00084692645 
  291400    1.6406629 -0.0091575034    2.2687804    4.7191258 6.6422872e-05 
  291600    1.6431356 -0.0079226805    2.2643346    4.7196216 -0.00066567404 
  291800    1.6761186 -0.0060202164    2.2133323    4.7199663 0.0046857867 
  292000    1.6156057 -0.0081188461    2.3065931     4.720414 -0.0016418904 
  292200    1.6656232 -0.0085813253    2.2323717     4.720711 -0.0035814776 
  292400    1.6868698 -0.0072207495    2.1992068    4.7207572 0.0046351874 
  292600    1.6284159 -0.008466191    2.2884626    4.7211399 0.0050536714 
  292800    1.6483964 -0.009481843    2.2598518    4.7214661 -0.0064681098 
  293000    1.6376422 -0.0082754333    2.2746447    4.7213438 -0.0020837803 
  293200    1.6071776 -0.0076776941    2.3199154     4.721543 0.0027641633 
  293400    1.6583493 -0.0029602257    2.2389983    4.7220545 -0.0013661865 
  293600    1.6375002 -0.0045941175    2.2716976    4.7218652 -0.0011790349 
  293800    1.6134673 -0.0080316498    2.3112075    4.7219101 -0.002112084 
  294000    1.6112699 -0.0060537026     2.312914    4.7223004 -0.0017445744 
  294200    1.6659407 -0.0083839924    2.2328132    4.7218258 0.0027783644 
  294400    1.6842041  -0.00679687    2.2043441    4.7223223 0.0078506761 
  294600    1.6167807 -0.0079567326    2.3066279    4.7223724 -0.0013300994 
  294800    1.6806676 -0.0077451805    2.2101887     4.721917 0.0069990178 
  295000    1.5917272 -0.0069800658    2.3430998    4.7222635  0.002256912 
  295200    1.6472513 -0.0086585321    2.2613399    4.7220609 0.0015538674 
  295400    1.6533637 -0.0086773884    2.2526827    4.7225478 -0.00019281759 
  295600    1.6778225 -0.0073667205    2.2142029    4.7220447 -0.00053057664 
  295800    1.6273443 -0.0058220486    2.2885865    4.7223014 0.0028466458 
  296000     1.683517 -0.0069017577    2.2049258    4.7217691  0.011905869 
  296200    1.6397749 -0.0056671434    2.2700262    4.7225307 -0.0043780569 
  296400     1.638583 -0.0073506163    2.2732328    4.7222671 0.00040516175 
  296600    1.6502612 -0.0051100574    2.2543788    4.7231602 0.0072184264 
  296800    1.6360569 -0.010063861    2.2805492    4.7230833 0.0079557563 
  297000    1.6315579 -0.0054230193    2.2828437    4.7232744  -0.00013731 
  297200    1.6451287 -0.0071023795    2.2637521    4.7228472  0.003487019 
  297400    1.6500998 -0.0073851367    2.2569491    4.7232136 0.0027873063 
  297600    1.6301099 -0.009805939    2.2891017    4.7229786 0.00098011851 
  297800    1.6366583 -0.0091731307    2.2786722    4.7229987 0.0019897053 
  298000    1.6455086 -0.0040828563     2.260611    4.7232951 0.0023226481 
  298200    1.6344228 -0.0026683725      2.27519    4.7226699 -0.0054905632 
  298400    1.6335445 -0.007709226    2.2817431    4.7228656 -0.00023196919 
  298600    1.6282681 -0.0090215751    2.2914363    4.7233366 0.00054556656 
  298800    1.6557501 -0.0060362359    2.2473074    4.7233911 -0.0014855941 
  299000    1.6789877 -0.0069673949    2.2137816    4.7237693 0.0013524555 
  299200    1.6721227 -0.0093303202    2.2268868    4.7242204 0.0044429773 
  299400    1.6233367 -0.0079585194    2.2990285    4.7245993  0.003013561 
  299600    1.6254157 -0.0096113012    2.2978749    4.7249095 -0.001329988 
  299800    1.6403836 -0.0062874755    2.2724154     4.725212 -0.0047748881 
  300000    1.6499846 -0.0055898351    2.2569862    4.7248732 0.0051256661 
  300200     1.651644 -0.0071390197    2.2561222    4.7249476 -0.0035749355 
  300400    1.6371513 -0.0037447406    2.2753963    4.7258902 0.00097441304 
  300600    1.6625884 -0.0049047151    2.2378341    4.7253005 0.0012230405 
  300800    1.6781935 -0.0044886151    2.2147165    4.7259926 -0.001552888 
  301000    1.6305997 -0.0068818762    2.2882772    4.7258125 0.0047534298 
  301200     1.658519 -0.0072970135    2.2471971    4.7261709 0.0068321857 
  301400    1.6479889 -0.0015557301    2.2575201    4.7264495 -0.002633717 
  301600    1.6784712 -0.006291705    2.2167613    4.7266504 0.0040580514 
  301800    1.6848192 -0.007109333    2.2083859    4.7269737 0.00035242676 
  302000    1.6436379 -0.0063951524    2.2693155     4.726883 -0.0036628371 
  302200    1.6308812 -0.006170048    2.2880962    4.7267654 -0.0018721104 
  302400     1.639425 -0.0053875439    2.2753421    4.7276017 0.0095513613 
  302600    1.6515579 -0.0069556971    2.2585006    4.7273803 -0.0044907887 
  302800    1.6648164 -0.008049434    2.2399439    4.7276056 0.0036595776 
  303000    1.6339967 -0.0093340515    2.2878838    4.7280593 0.0061982284 
  303200    1.6414426 -0.0075513989    2.2749226    4.7280429 -0.0032903423 
  303400    1.6118652 -0.010455059    2.3225914    4.7284688 -0.0049951845 
  303600    1.6364018 -0.0059865277    2.2812066    4.7283351 0.0046116457 
  303800    1.6493177 -0.0061002653     2.261771    4.7281479 -0.0045929631 
  304000    1.5959394 -0.0038060493    2.3409284    4.7295807 -0.0046474512 
  304200    1.6236903 -0.005728873     2.300531    4.7288616  0.001961539 
  304400    1.6457286 -0.0080130555    2.2697496    4.7288333 -0.00081570988 
  304600    1.6804748 -0.0067571852     2.217085    4.7295124 0.0018806815 
  304800    1.6737521 -0.0065170909    2.2267298    4.7293193 0.0044258377 
  305000    1.6177731 -0.0063342963    2.3111278    4.7299824 0.0037034743 
  305200    1.6597971 -0.0068846002    2.2485506    4.7298528 -0.0057376598 
  305400    1.6251936 -0.0018650161    2.2959023    4.7303502 -0.00061811771 
  305600    1.6305908 -0.0066329386    2.2925338    4.7303048  0.011203617 
  305800     1.676521 -0.0063591708    2.2237194    4.7306176 -0.0046382443 
  306000    1.6442138 -0.0074946988    2.2725984    4.7299296 2.4114803e-05 
  306200    1.6895214 -0.0064172513    2.2032066    4.7295355 0.0021809811 
  306400    1.6778194 -0.004708189    2.2191285    4.7296241 -0.0050037195 
  306600    1.6167317 -0.0044913905     2.311602    4.7307384 -0.0024126932 
  306800    1.6429286 -0.0064663103    2.2739905    4.7304235 -0.00037850251 
  307000    1.5958917 -0.0082905979    2.3468825    4.7309786 -0.0011433887 
  307200     1.655574 -0.0090720785    2.2577453    4.7305292 0.0041430945 
  307400    1.6622492 -0.010046291     2.249164    4.7309805 -0.0018409576 
  307600    1.7043185 -0.007906862    2.1834727    4.7304942 0.0035598328 
  307800    1.6303272 -0.0098671435    2.2964748    4.7306163 0.0010154668 
  308000     1.630897 -0.0071803182     2.293696    4.7313786 -3.8423648e-05 
  308200    1.6800359 -0.0068202473    2.2189817    4.7306881 0.0035573282 
  308400    1.6543273 -0.0093370767    2.2602027    4.7308527 0.00052897069 
  308600    1.6909796 -0.0087051658    2.2046722    4.7308992 0.0059866066 
  308800    1.6771599 -0.0091317202    2.2259927    4.7310761  0.012585334 
  309000    1.6465076 -0.008166116    2.2714413    4.7315397 -0.0041386383 
  309200    1.6932621 -0.0072024766    2.2004745    4.7316259 -0.0017591713 
  309400    1.6573013 -0.0046517342    2.2526488    4.7324424 0.00031867086 
  309600    1.6608068 -0.0057222571     2.248236    4.7322141 0.0062684949 
  309800    1.6638063 -0.0070410628    2.2453035    4.7324593 0.0025714824 
  310000    1.6302481 -0.0068682342    2.2962932    4.7333151 -0.0047414333 
  310200    1.6344186 -0.0048487079    2.2883585     4.733652 0.0028845141 
  310400    1.6333923 -0.0045605609    2.2895681    4.7336111 0.0034671145 
  310600    1.6435989 -0.0049556282    2.2745313    4.7334799 0.0025917507 
  310800    1.6559178 -0.0064562383    2.2583392    4.7342543 -0.0085488239 
  311000     1.671505 -0.0051860191    2.2334195    4.7339714 0.0024980394 
  311200    1.6694834 -0.0057776143    2.2372521    4.7341818  0.006048792 
  311400    1.6589345 -0.0073683835    2.2551719    4.7346972 -0.0034713939 
  311600    1.6559595 -0.0075602001    2.2596921    4.7345657 0.00048583609 
  311800    1.6707547 -0.0072523033    2.2375188    4.7348797 0.0072505784 
  312000    1.6177661 -0.0064033387    2.3163897    4.7351648 -0.0039038961 
  312200     1.685194 -0.0043625618    2.2131162    4.7350126 0.0098551031 
  312400    1.6611882 -0.0064660589    2.2514989     4.735305  0.001314804 
  312600      1.64133 -0.0047946255    2.2798883    4.7355965 2.6413401e-05 
  312800    1.6422826 -0.0073609038    2.2806157    4.7351856 -0.0030943349 
  313000    1.6245414 -0.0059320878    2.3062321    4.7356353 0.0035998622 
  313200    1.6490137 -0.0048950111    2.2687019    4.7358282 -0.0048640105 
  313400    1.6583275 -0.0074772039    2.2578718    4.7363783 -0.0027594084 
  313600    1.6680712 -0.0057926542    2.2415951    4.7363928 -0.0034936247 
  313800    1.6691572 -0.0050359614    2.2392671    4.7364495 0.0034499568 
  314000    1.6357401 -0.003629679    2.2880981    4.7365915 0.0071109371 
  314200    1.6465316 -0.005243957    2.2741092    4.7371659 0.0043376259 
  314400    1.6582048 -0.0069455434    2.2581199     4.736974 -0.016358286 
  314600    1.6675507 -0.0020095576    2.2393178    4.7371184 0.0045552895 
  314800    1.6669694 -0.0074673694      2.24539    4.7368613 0.0043554662 
  315000     1.633974 -0.0068245571    2.2948212    4.7374721 -0.0050477416 
  315200    1.6552817 -0.0067154294    2.2635728    4.7382751 0.00063802251 
  315400    1.6925033 -0.0054414218    2.2060693    4.7378443 -0.0014554945 
  315600     1.661153 -0.0041159616    2.2521451    4.7382486 0.00079109035 
  315800    1.6771941 -0.0039918892    2.2277676    4.7380422 -0.0015356528 
  316000    1.6666664 -0.0055090826    2.2456606    4.7386359 -0.0020975589 
  316200     1.675835 -0.0047360485    2.2320165    4.7395095 0.0051976679 
  316400    1.6592545 -0.0068977168    2.2585404     4.739016 -0.0038099705 
  316600    1.6611076 -0.0072523731    2.2562151     4.739114  0.001072376 
  316800    1.6177618 -0.0060118322    2.3211159    4.7402761 -0.0014410798 
  317000    1.6601556 -0.0081607136    2.2600717    4.7406352 0.0032373225 
  317200    1.6375697 -0.0065844429    2.2925992    4.7408806 0.0016126195 
  317400    1.6690864 -0.0076290546    2.2460841    4.7405674 -0.00013814213 
  317600     1.685593 -0.0060888742    2.2197532    4.7405215 -0.0045371213 
  317800    1.6913552 -0.008552026    2.2135509     4.740494 0.0028718815 
  318000    1.6947755 -0.0088749614    2.2095505    4.7412982 0.0026838201 
  318200    1.6330437 -0.0078704265    2.3019204    4.7421311 0.0063051392 
  318400    1.6598034  -0.00572888    2.2596837     4.742151 -0.0039266758 
  318600    1.6906593 -0.0088437892    2.2165037    4.7421119 -0.00079745983 
  318800     1.623431 -0.0099969059    2.3192833    4.7429571 0.0047343113 
  319000    1.6818825 -0.0085388382    2.2301808    4.7429368 0.0056166002 
  319200    1.6913977 -0.0086465668    2.2162277      4.74314 0.0059289395 
  319400    1.6927248 -0.0082117975     2.213861    4.7431975 -0.0023633427 
  319600    1.6855096 -0.0070303986    2.2234676    4.7431694 -0.0033230579 
  319800    1.6847302 -0.0053979857    2.2234473     4.743613  0.010044076 
  320000    1.6596305 -0.0054874305    2.2617545    4.7442041 0.0064128452 
  320200    1.6234787 -0.0051095644    2.3159262    4.7445588 -0.0043508194 
  320400     1.652834 -0.0052606694     2.272235    4.7447227 0.0049612686 
  320600    1.6608204 -0.0061798106    2.2611941    4.7447351 -0.00080745711 
  320800    1.7272743 -0.0059420206    2.1612363    4.7446355 0.0063056034 
  321000    1.6626213 -0.0018724455    2.2550317    4.7455797 0.0033901431 
  321200    1.6448346 -0.0087367577    2.2883777    4.7453974 -0.0036326164 
  321400    1.6621656 -0.0098778279    2.2634837    4.7453432 -1.6477185e-05 
  321600    1.6793842 -0.0054010637    2.2341319    4.7462804 -0.0018763539 
  321800    1.6200792 -0.0062989995    2.3240416    4.7463887 0.0033119645 
  322000    1.6681571 -0.0086661128    2.2542842    4.7463371 0.0045370474 
  322200    1.6678102 -0.0059037533    2.2528938     4.747189 0.0022948949 
  322400    1.6633237 -0.0061656588     2.259342    4.7466498 -0.0078154014 
  322600    1.6514019 -0.0057205622    2.2772124    4.7470934 0.0034017422 
  322800    1.6725873 -0.0068344387    2.2468272    4.7473531 0.0026609813 
  323000    1.6214072 -0.0095390767    2.3264603     4.747558 -0.0036573617 
  323200    1.6682728 -0.0092231303    2.2561409    4.7478104 0.0014701396 
  323400    1.6955022 -0.0084107523    2.2142305    4.7475318 0.0023730189 
  323600    1.6838989 -0.010253371    2.2335454    4.7476095 -0.0011296857 
  323800    1.6804916 -0.0071836459    2.2357944    4.7478205 -0.0044642282 
  324000    1.6259278 -0.0084188596    2.3199677    4.7489625 0.0041681109 
  324200    1.6756143 -0.0045917577    2.2413785    4.7486849 0.0016764782 
  324400    1.6768413  -0.00577415    2.2409363    4.7488997 0.0029871041 
  324600    1.6418685 -0.0052561349     2.293705    4.7497591 -0.0041244477 
  324800    1.6887059 -0.0019891117     2.220716    4.7502506 -0.0016007371 
  325000    1.6341944 -0.0042711649    2.3046546    4.7501895 -0.001397837 
  325200    1.6769519 -0.0056185533    2.2415866    4.7498713 0.0042975677 
  325400      1.65418 -0.0060613596    2.2765713    4.7502761 0.0013150765 
  325600    1.6900562 -0.006105812     2.222939    4.7503811 0.0026832537 
  325800    1.6504167 -0.0084351705     2.284506    4.7501955 -0.0042876259 
  326000    1.6483875 -0.0066036814    2.2860902    4.7505693 0.0052458505 
  326200    1.6789926 -0.0043112393     2.238529    4.7511803 0.0058612322 
  326400    1.6703474 -0.0040516439    2.2510297    4.7509807 0.0022960792 
  326600     1.652619 -0.0042016355    2.2778807    4.7511051 0.0048639781 
  326800     1.639035 -0.0053365027    2.2996453    4.7513712 0.0012447384 
  327000    1.6714687 -0.0059986741    2.2517961    4.7514809 -0.0040878495 
  327200    1.6519114 -0.006073315    2.2813285    4.7516206 -0.0022020435 
  327400    1.6370449 -0.0058085289    2.3032498    4.7515204 -0.0019989439 
  327600    1.6889983 -0.0068257879    2.2267261    4.7518623 0.0017231457 
  327800    1.6909555 -0.0043475787     2.221939    4.7524874 0.0073232694 
  328000     1.679407 -0.0024272282    2.2379047    4.7530612 -0.0047087952 
  328200    1.6632328 -0.0045991739    2.2646901     4.753428 -0.0004213854 
  328400    1.6443354 -0.0050935452     2.293241    4.7531557 0.0019410825 
  328600    1.6540833 -0.0052472856    2.2793644    4.7537384 0.0021382779 
  328800     1.656988  -0.00605004    2.2760044      4.75393 0.0080487106 
  329000    1.6992811 -0.0072697306    2.2138345    4.7539416 0.0019820178 
  329200    1.6509919 -0.0083866113    2.2877962    4.7543966 0.0026146031 
  329400    1.6410545 -0.0063734344    2.3008141    4.7545306 -0.0036472138 
  329600    1.6915413 -0.0067884762      2.22544    4.7544257 0.0089905136 
  329800    1.6994664 -0.0073967178    2.2140966    4.7543546  0.005650083 
  330000      1.66658 -0.0058268917    2.2625689    4.7550969 -0.0028230839 
  330200    1.6580894 -0.0044025815    2.2738248    4.7550489 0.0031353216 
  330400    1.6713901 -0.0052460897    2.2550398    4.7553595 0.0020796595 
  330600    1.6890487 -0.0051887687    2.2286817    4.7555304 0.00017067858 
  330800    1.6469034 -0.0071302849    2.2943586    4.7560862 0.0020397132 
  331000    1.6865199 -0.0074138351    2.2352598    4.7560925 0.0071922825 
  331200    1.6432803 -0.0079345905    2.3013316    4.7568236 -0.0021087771 
  331400    1.6605269 -0.0048954308    2.2731648    4.7575501  0.007241154 
  331600     1.654978 -0.0059727418    2.2817974    4.7567871 0.0012773626 
  331800     1.676769 -0.0082798933    2.2511845    4.7565338 -0.003082794 
  332000    1.6417452 -0.0072935637    2.3028292    4.7566609 0.0048391767 
  332200    1.6640589 -0.0091660645    2.2715328    4.7569423  0.002982332 
  332400    1.6946712 -0.0041410421    2.2205874    4.7569125  0.003504176 
  332600    1.6564276 -0.0071489942    2.2815681    4.7575547 0.0026291197 
  332800     1.683713 -0.0067440621    2.2401307    4.7574255  0.001424256 
  333000    1.6600451 -0.0054086393     2.274716    4.7578659 -0.0039763778 
  333200    1.6415367 -0.0052817209    2.3033184    4.7588495 -0.0013582438 
  333400    1.6691143 -0.0077497448    2.2637489    4.7581532 0.0046316661 
  333600    1.6555587 -0.006858098    2.2832922    4.7582671 -0.00063687309 
  333800    1.6373956 -0.006283923    2.3100298    4.7583508 9.8127856e-05 
  334000    1.6930541 -0.0068482045    2.2272656    4.7584594 0.00069602418 
  334200     1.622665 -0.0056389774    2.3323671    4.7592504 0.0021496816 
  334400    1.6557229 -0.0062491975    2.2834262    4.7592562 -0.0017769984 
  334600    1.6606558 -0.0063251776    2.2759389    4.7590878 -0.004770568 
  334800     1.651547 -0.0074351294    2.2915156    4.7598996 0.0059242262 
  335000    1.6303575 -0.0066932218    2.3229417    4.7603026 -0.010451778 
  335200    1.6717208  -0.00764906    2.2616294    4.7600418 0.0054544942 
  335400    1.6792909 -0.0051097397    2.2485313    4.7608313 0.0091583626 
  335600    1.6332271 -0.0078865499    2.3198282    4.7602976  -0.00303499 
  335800     1.630479 -0.010501296    2.3266556    4.7603905 0.0027109325 
  336000    1.6591868 -0.0095651693     2.283397    4.7611036 -0.00051768059 
  336200    1.6680369 -0.0095361364    2.2696337    4.7606365 0.0076327371 
  336400    1.6202027 -0.010561766    2.3433742    4.7616435 -0.008036365 
  336600    1.6582499 -0.009418308     2.284812    4.7612611 0.0029140925 
  336800     1.653373 -0.010362115    2.2934146     4.761609 0.0027797679 
  337000    1.6588981  -0.01089329    2.2860057    4.7619515 -0.0030826522 
  337200    1.6117512 -0.012758479    2.3594648    4.7628679 -0.0019855879 
  337400     1.682103  -0.01552223    2.2559104    4.7620136 0.0065142537 
  337600    1.6852955 -0.014102499    2.2500529    4.7623615 -0.0037202409 
  337800    1.7139732 -0.014562603    2.2075377    4.7623768 0.00046975446 
  338000    1.6617476 -0.0098664248     2.281911    4.7631553 -0.0037895746 
  338200    1.6980826 -0.0096145641    2.2269487    4.7629143 -0.00095490899 
  338400    1.6454919 -0.0098578409    2.3066268    4.7635109 0.00083014467 
  338600    1.6611374 -0.010830836    2.2838981    4.7632632 0.0045717233 
  338800    1.6376525 -0.011218388    2.3207771    4.7645487 0.0054380996 
  339000    1.6821026 -0.0096419293    2.2519375    4.7639202 0.0064504456 
  339200     1.634432 -0.0081886695     2.323223    4.7651965 0.0024166486 
  339400    1.6887671 -0.0098063644    2.2428938    4.7647029 0.0047308473 
  339600    1.6766272 -0.012379033    2.2637818    4.7648194 0.0021941111 
  339800    1.6671128 -0.010908645     2.277254    4.7654991 -0.00092059179 
  340000    1.6489554 -0.010658885    2.3035865    4.7648618 0.00074024396 
  340200    1.6767361 -0.010450654    2.2621895    4.7653186 -0.0022505928 
  340400      1.70205 -0.0076652619    2.2216861    4.7655486 0.0073434736 
  340600    1.6251465 -0.007065114     2.336697    4.7658742 -0.002756312 
  340800    1.6954533 -0.010623128    2.2342231    4.7652385   0.00343081 
  341000    1.6454267 -0.011607123    2.3115956    4.7666327 0.0038364869 
  341200     1.663196 -0.010340102    2.2839214    4.7668633 -0.00027045495 
  341400    1.6650984 -0.0067033268     2.277861    4.7672915 -0.0014352421 
  341600    1.6640578 -0.010446897    2.2829391    4.7670662 -0.0010176296 
  341800    1.6812271 -0.0077036318    2.2545986    4.7672072 0.0042430439 
  342000    1.6483727 -0.0075862126    2.3039642    4.7674385 0.0011043568 
  342200    1.6622342 -0.0084536579    2.2843959    4.7677824  0.001389309 
  342400    1.6066425 -0.0079541521     2.367693    4.7682421 -0.00067852064 
  342600     1.670616 -0.0069348874    2.2704059    4.7678763 0.0011117305 
  342800    1.6270291 -0.0087446623    2.3379396    4.7682595 0.0011161956 
  343000    1.6870425 -0.0088260929    2.2484661    4.7686701 -0.0026944991 
  343200    1.6720587 -0.0078229158    2.2704994    4.7692445 0.0028350921 
  343400    1.6570878 -0.009751817    2.2949896     4.769363 -0.0020635412 
  343600    1.6474265 -0.0071156124      2.30745    4.7699765 -0.00049338686 
  343800    1.6568832 -0.0070627788    2.2933207    4.7700764 -0.0019706486 
  344000    1.6736771 -0.0064663394    2.2675121    4.7700399 0.0068725781 
  344200    1.6556366 -0.005678951    2.2944616    4.7707324 -0.0027862916 
  344400    1.6697335 -0.007034104    2.2746109    4.7706592 0.0023253639 
  344600    1.7005979 -0.0049931232     2.226685    4.7710427 0.0083545024 
  344800    1.6581927 -0.0095526273    2.2948306    4.7710596 0.00047456893 
  345000    1.6703633 -0.0078553085    2.2751948     4.771366 -0.0077480242 
  345200     1.644627 -0.0083036844    2.3148165    4.7719582 -0.0003678102 
  345400    1.6539353 -0.0081883072    2.3006412    4.7718523 0.0051539718 
  345600     1.657226 -0.010868889    2.2987494    4.7722129 -0.0025967428 
  345800     1.694066 -0.0086259663    2.2413625    4.7722955  0.005197153 
  346000    1.7004605 -0.0041437525    2.2280395    4.7730405 0.0073787303 
  346200    1.7107611 -0.0089503602    2.2170448    4.7726809 0.0018667258 
  346400    1.6829137 -0.0089154639    2.2588252    4.7727504 0.0041196918 
  346600    1.6946648 -0.0096759027    2.2418655    4.7726462 0.0027352902 
  346800     1.671165 -0.0082256044    2.2755786    4.7725813 0.0059533899 
  347000    1.6882597 -0.007541146    2.2498445    4.7731581 0.0086251036 
  347200    1.6592456 -0.0061149033    2.2925033    4.7737484 -0.00070828202 
  347400    1.6758407 -0.0067610221    2.2678237    4.7733002 -0.0024338998 
  347600    1.6834503 -0.0079781921    2.2578596    4.7735265  0.001958895 
  347800    1.6984147 -0.006243658    2.2336526    4.7734869 -0.0028019692 
  348000    1.6746967 -0.0064760193    2.2697942    4.7738407 0.0041161895 
  348200    1.6455813 -0.005818615    2.3139301    4.7749874 0.00035547266 
  348400    1.6414769 -0.0081388668    2.3219463    4.7745305 0.0015522289 
  348600    1.6471309 -0.0059016958    2.3117642    4.7750614 -0.0016403137 
  348800    1.6569053 -0.0044225236    2.2954847    4.7749139  0.009928986 
  349000    1.7035656 -0.0062976494    2.2277574    4.7752594 0.0019140985 
  349200    1.6356471 -0.0088710213    2.3322537    4.7753664 -0.010452099 
  349400    1.6725351 -0.0061018326    2.2748336    4.7760139 -0.0002625554 
  349600    1.6576347 -0.007967293    2.2985696    4.7755474 0.0036141896 
  349800    1.6844035 -0.0030947446     2.253993    4.7759722 -0.0049897511 
  350000    1.6909122 -0.0070115136    2.2478564     4.775676 0.0046482796 
  350200    1.6502262 -0.0063564114    2.3089915    4.7764742 0.0030311752 
  350400    1.6443341 -0.0051832072    2.3169022    4.7767254 -0.0032469545 
  350600     1.669058 -0.004232768    2.2789822     4.776819 -0.0038911713 
  350800    1.6538649 -0.0065227276    2.3039251    4.7766962 0.0038707713 
  351000    1.6678927 -0.007899076    2.2840202    4.7764439 0.0036484989 
  351200    1.6614035 -0.0090689293    2.2950524    4.7765784 0.0071916279 
  351400    1.6850993 -0.010142296    2.2605081    4.7764828 -0.0009592859 
  351600    1.6922561 -0.012721598    2.2524512    4.7765753  0.011092153 
  351800    1.6568616 -0.011866069    2.3043512    4.7762713 0.0045802165 
  352000    1.7003847 -0.009318539    2.2365013     4.776214 0.0031262277 
  352200    1.6554418 -0.0079997286    2.3031165    4.7767745 0.0021686301 
  352400    1.6387155 -0.0098761375    2.3301839    4.7768913 0.0010704526 
  352600    1.6394306 -0.008848379    2.3279194    4.7767265 0.00086674319 
  352800    1.6781741 -0.0078758735    2.2689756    4.7768352 -0.0047850204 
  353000    1.6372185 -0.0083561102    2.3312734    4.7772566 5.7148099e-05 
  353200     1.663319 -0.0061064726    2.2901804    4.7775404 -0.0033948254 
  353400    1.6300343 -0.0091689872     2.343869    4.7782696 -0.00074031734 
  353600    1.6474559 -0.0096549595    2.3179243    4.7779555 -0.0029007503 
  353800    1.7011257 -0.0076938152    2.2359658     4.778414 0.0054012127 
  354000    1.6341368 -0.0074180829    2.3360564     4.778358 -0.0034802964 
  354200    1.6762703 -0.0072107978    2.2729067    4.7785775 0.0010987947 
  354400    1.6572397 -0.0060901353    2.3007051    4.7789679 -0.0039524527 
  354600    1.7056477 -0.0062281206    2.2282128    4.7789056 -0.0025272292 
  354800    1.6550536 -0.0045940135    2.3027578    4.7792395  -0.00647297 
  355000    1.6947299 -0.0064794413    2.2447521    4.7788268 -5.80331e-05 
  355200    1.6623862 -0.010221665    2.2977809    4.7796272 0.0032334603 
  355400    1.6471903 -0.0093748342    2.3201709    4.7800841 -0.0026687627 
  355600    1.6875322 -0.0087328593    2.2591778    4.7802091 0.0034665781 
  355800    1.6608346 -0.0070617475    2.2974807     4.780161 0.0058857772 
  356000    1.6393617 -0.0058196682    2.3288426    4.7805751 -0.0054707166 
  356200    1.6291749 -0.0030707934    2.3417974    4.7810079  0.007697352 
  356400    1.6602221 -0.0073864732    2.3001194    4.7815567 -0.0033473962 
  356600    1.7217799 -0.0082897568    2.2087809    4.7815958 0.0086891415 
  356800    1.6429194 -0.006638402    2.3257953    4.7820425 -0.0033367188 
  357000    1.6865818 -0.0062615734    2.2604258    4.7825037  0.013919338 
  357200    1.6700318 -0.0041959427    2.2838045    4.7831381 -0.0031838599 
  357400    1.7096682 -0.0070171341    2.2274076    4.7833385 0.0069033601 
  357600    1.6510949 -0.0053304542    2.3139134    4.7837243 -0.00091974995 
  357800    1.6516061 -0.0050087919    2.3128491    4.7837481  0.001857584 
  358000    1.6543771 -0.0030907018    2.3071558    4.7841267 0.0009443261 
  358200    1.6730885 -0.0056724105    2.2817729    4.7842122 -0.0023343107 
  358400    1.7125809 -0.0061987846    2.2225982    4.7837138 -0.0018139863 
  358600    1.6811116 -0.0083476545    2.2718418    4.7836332 0.0014946338 
  358800    1.6791673 -0.0073464156    2.2737377    4.7836157  0.001704394 
  359000    1.6437006 -0.0076366912    2.3275072    4.7839272 0.00017316183 
  359200    1.6728053 -0.007585622    2.2836462    4.7837477 -0.0034006524 
  359400    1.6825382 -0.0083781408    2.2700768    4.7839765 0.0069053575 
  359600    1.6489809 -0.009343288     2.321797    4.7844259 -0.00039388357 
  359800    1.6898089 -0.0087481624    2.2600418    4.7844708 0.0081520374 
  360000     1.665377 -0.008544848    2.2967663     4.784773 0.0018978842 
  360200    1.6836259 -0.0079522013      2.26912     4.785076 0.0045056516 
  360400    1.7148053 -0.0078471752    2.2230224    4.7858243 0.0067423408 
  360600    1.6500667 -0.0087319829    2.3217466    4.7866145 0.0053094963 
  360800    1.6741392 -0.0090046065    2.2852614    4.7859437 -0.00099613136 
  361000    1.7175101 -0.0097556938    2.2211953    4.7861433 0.0022284803 
  361200    1.6518446 -0.0090565241    2.3194036    4.7866123 -0.0054551541 
  361400    1.6798698 -0.0073223222    2.2750932    4.7860485 0.0015696535 
  361600    1.6784034 -0.0054851548    2.2757521    4.7863462 2.6839703e-05 
  361800    1.6747051 -0.0075626942    2.2836835     4.786656 0.00058221941 
  362000     1.652944 -0.0068338172    2.3160276    4.7871071 -0.0040742347 
  362200    1.6815206 -0.0067837834    2.2733123    4.7872807 -0.0058265115 
  362400    1.6576542 -0.0089438306    2.3112075    4.7872379 -0.00034974358 
  362600    1.6709989 -0.0081765119    2.2909047    4.7877075 0.00058166076 
  362800    1.6104985 -0.011480824    2.3851405    4.7879434 -0.0041960237 
  363000    1.6560596 -0.0064226312     2.311551    4.7877122 -0.0015547606 
  363200    1.6708677 -0.0054763316    2.2892298     4.788536 -0.0045504543 
  363400    1.6545941 -0.0074850447    2.3154094    4.7883114 -0.0022941238 
  363600    1.6554708 -0.0067242007    2.3132927    4.7882698 -0.004193131 
  363800      1.62549 -0.0070548355    2.3593651    4.7890676 -0.0037924591 
  364000    1.6916273 -0.0082499602    2.2610094    4.7886625 0.0016309597 
  364200    1.6530113 -0.0077825721    2.3187304     4.788962 -0.0011703506 
  364400    1.6535496 -0.0043008146    2.3148209    4.7893413 0.0037627619 
  364600    1.6551355 -0.0082076674    2.3164651     4.789456 -0.0017222449 
  364800    1.6773227 -0.0077713429    2.2830285    4.7897163 0.0035144281 
  365000    1.6792165 -0.0082162772    2.2809398    4.7900217 0.0054980019 
  365200    1.6724759 -0.0090441333    2.2918564    4.7900057 -0.0018206322 
  365400    1.6568735 -0.0062086261    2.3133033    4.7908987  0.004225825 
  365600    1.6387012 -0.0074417489    2.3421847     4.791305 -0.0023465583 
  365800    1.6885621 -0.011058803    2.2709338    4.7911831 0.00035410169 
  366000    1.6374902 -0.010465678    2.3471108    4.7913918 0.0025699702 
  366200    1.6704464 -0.0081072338    2.2959159    4.7919598 0.0015367164 
  366400    1.7212852 -0.0087713939     2.219162    4.7907535 0.0015352469 
  366600    1.6701389 -0.0073650076    2.2952606    4.7915857 0.00054295322 
  366800    1.6614672 -0.0057256917    2.3064422     4.791407  0.005488103 
  367000    1.6519996 -0.0081875584    2.3235898    4.7918998 -0.0039239269 
  367200     1.642158 -0.0094774295    2.3395564    4.7918232 0.0053100512 
  367400    1.6791042 -0.0068478034    2.2820093    4.7922913 0.0049139499 
  367600    1.6326062 -0.011998181    2.3574628    4.7928897 -0.0099602167 
  367800    1.7108514 -0.012579204    2.2405706    4.7927132 0.0087026905 
  368000    1.6301355 -0.015916509    2.3659447    4.7937495 0.0041947256 
  368200     1.638578 -0.012762318    2.3504528    4.7940678 -0.0067291481 
  368400    1.6285003 -0.011396753    2.3639831    4.7938563  -0.00341846 
  368600    1.6755268 -0.0083720814    2.2904823    4.7938772 -0.0010633345 
  368800    1.6945894 -0.0081514565    2.2617628    4.7939548 -0.00086224806 
  369000    1.6506002 -0.010066554    2.3302753    4.7946085 0.0056781382 
  369200    1.6946189 -0.010078496    2.2636771    4.7939865 0.0044838211 
  369400    1.6477672 -0.0088645122      2.33317    4.7944583 0.00012842777 
  369600    1.6668369 -0.0090854766    2.3051451    4.7947998 -0.0029909081 
  369800    1.6960343 -0.010542031    2.2622876    4.7942552 -0.0048126077 
  370000    1.7070424 -0.010862405    2.2463911    4.7945405  0.001088992 
  370200    1.6850515 -0.010521743    2.2792691    4.7947927 -0.0048356943 
  370400    1.7002261 -0.012606653     2.259308    4.7954948 0.0079042828 
  370600    1.6701244 -0.011440708    2.3040503    4.7962779 0.0013337206 
  370800    1.6669747 -0.0088852126    2.3067733    4.7968346 0.0023509205 
  371000    1.6697726 -0.0023477581    2.2956661    4.7964593 -0.0054764315 
  371200    1.6505896 -0.0074075897    2.3300951    4.7970715 0.00012431496 
  371400    1.6559807 -0.0093780954    2.3237328    4.7968203 -0.0012647949 
  371600    1.6911554 -0.0031313687     2.265163    4.7972273 0.0040247394 
  371800    1.7084486 -0.0065048492    2.2423476    4.7969626 -0.0068697043 
  372000    1.6916909 -0.0074983876    2.2686177    4.7971177 -0.0041640017 
  372200     1.680836 -0.0085677514    2.2863145    4.7974727   0.00555673 
  372400    1.6472294 -0.0063339183    2.3344969    4.7975096 0.0066796792 
  372600    1.6577611 -0.011840312    2.3244207    4.7977149  0.001909058 
  372800    1.6751181 -0.012707618    2.2988359    4.7972826 0.0021603855 
  373000    1.6869795 -0.0087488824    2.2768225    4.7970093 0.00059562578 
  373200    1.6339974 -0.0056449387    2.3536066    4.7974723 -0.0046279674 
  373400    1.6489111 -0.0074812981    2.3335976    4.7979839 -0.0088699752 
  373600    1.6663032 -0.007366081    2.3075108    4.7980847 -0.0010871391 
  373800    1.6463526 -0.0085559827    2.3388666    4.7983428 -0.00044816121 
  374000    1.6925363 -0.0065198876    2.2677035    4.7984494 0.0069820045 
  374200    1.6646396 -0.0067715715    2.3105938    4.7992684 0.0046289428 
  374400    1.6708602  -0.00977444    2.3040997    4.7990966 0.0025657852 
  374600    1.6519638 -0.0076232782     2.330902    4.7997226 0.00073119266 
  374800     1.639424 -0.0082025328    2.3502174    4.7996605 0.0020677388 
  375000     1.670401 -0.0083243788    2.3040476    4.7998063 0.0053303448 
  375200    1.7019594 -0.0080733041    2.2564529    4.7997715  0.001272071 
  375400    1.6933512 -0.0093415556    2.2716605    4.8008063 0.0042227428 
  375600    1.6522879 -0.011402682     2.335624    4.8011511 0.0050558916 
  375800     1.667104 -0.010155254    2.3119466    4.8009318 -0.0038659977 
  376000    1.7162479 -0.0076837686    2.2357793    4.8009071 0.0067820202 
  376200    1.6549605 -0.0071342623    2.3285755    4.8023774 0.0030617306 
  376400    1.6615297 -0.0052628391    2.3168483    4.8023696 -0.001968589 
  376600    1.6867432 -0.0040445576    2.2775069    4.8020437  0.003303151 
  376800    1.6817377 -0.0040327529    2.2854127    4.8024576 0.00064558282 
  377000    1.6357149 -0.0049550743    2.3561368    4.8032671 0.0035057266 
  377200    1.6780853 -0.0056632116     2.293003    4.8029422 -0.00054929012 
  377400     1.665767 -0.0019137294    2.3079915     4.803214 0.0069976756 
  377600    1.7106386 -0.006182514     2.244844    4.8030643 0.0025934955 
  377800    1.6381413 -0.0064762129    2.3545114     4.803758 -0.0028520929 
  378000    1.6635413 -0.0054191238    2.3157725     4.804153 0.0032655901 
  378200    1.6823346 -0.0068227357    2.2892994    4.8044492 0.0020716904 
  378400     1.669541 -0.0039762243    2.3065554    4.8053729 0.0017552936 
  378600    1.6668266 -0.0055926716    2.3124711    4.8056031 -0.00071231843 
  378800    1.6543543 -0.004795936    2.3306433    4.8058748 -0.0038129757 
  379000    1.6919715 -0.0054531457    2.2748626    4.8058286  0.010351927 
  379200    1.7108881 -0.0061336852    2.2480609     4.806704 0.0044767106 
  379400    1.6547918 -0.0049105811    2.3311472      4.80692 -0.0054547146 
  379600    1.7010684 -0.0060567094    2.2627546    4.8067541 0.0079442472 
  379800    1.6691326 -0.0051718534    2.3104312    4.8074409 0.00067005612 
  380000     1.683792 -0.004129853     2.287681    4.8077085 -0.0010440868 
  380200    1.6714341 -0.0020056449    2.3039141    4.8075402 0.00048618759 
  380400    1.6800782 -0.0039985472     2.293134    4.8077255 0.0024119645 
  380600    1.6766266 -0.0046346234    2.2989814    4.8077625 -0.0037516142 
  380800     1.652449 -0.0055432583    2.3367621    4.8083901 0.00030171109 
  381000    1.6274697 -0.0065991991    2.3759504    4.8090762 -0.0023963179 
  381200    1.6441374 -0.0060741528    2.3504374    4.8090746 -0.0016467423 
  381400    1.6944862 -0.0071507904    2.2760348    4.8090729 0.0097146258 
  381600    1.6667244 -0.0072624458    2.3179411    4.8092501 6.2691407e-05 
  381800    1.6532969 -0.0061292979    2.3372516    4.8095646 -0.00062228941 
  382000    1.6777649 -0.0089911397    2.3039968    4.8101278 0.0049678308 
  382200    1.7449813 -0.008970048    2.2040515    4.8109671 0.0080272016 
  382400    1.6722859 -0.0075342873    2.3114764    4.8108507 -0.0080202391 
  382600    1.6760602 -0.0064017628    2.3051615    4.8113265 0.0083872478 
  382800    1.6832925 -0.0039946708    2.2921106    4.8115244 5.3847955e-05 
  383000    1.6749075 -0.0061184456    2.3065527    4.8112729 -0.00067661332 
  383200    1.6445653 -0.0073247755    2.3537925    4.8118206 0.0028308539 
  383400    1.6452133 -0.008271884    2.3541269    4.8121793 -0.0066215786 
  383600    1.6987704 -0.0080828096    2.2735952    4.8121236 -0.0019294443 
  383800    1.6308134 -0.0091005838    2.3773985    4.8130355  0.003392379 
  384000    1.6525951 -0.005836424    2.3413144    4.8128683 0.0027080204 
  384200    1.6527041 -0.0067938401     2.342686    4.8134458 -0.0027909251 
  384400    1.6643277 -0.0063208884    2.3249977    4.8136553 -0.003548647 
  384600    1.6906765 -0.0072267345    2.2866726    4.8139235 0.0047012719 
  384800    1.6323692 -0.0064680578    2.3737858    4.8143875 0.0074169328 
  385000    1.6702543 -0.0055178293    2.3162247      4.81457 0.0061224469 
  385200    1.7045214 -0.00064472392    2.2600305    4.8146182 0.0049070767 
  385400    1.7000404 -0.0050873528    2.2708192    4.8142469 0.0038912683 
  385600    1.6704783 -0.006785259    2.3169696    4.8143833 0.00039469517 
  385800     1.638109 -0.0053702232    2.3647379    4.8150419 0.0040153019 
  386000    1.6496634 -0.0062127064    2.3484335    4.8152162 -0.0040738982 
  386200    1.6858342 -0.0053695029    2.2933687     4.815218 -0.00023284134 
  386400    1.6927523 -0.0050122455     2.282555    4.8151324 0.0031257121 
  386600    1.6829778 -0.0053239946     2.297892    4.8155048  0.003507196 
  386800     1.680123 -0.0027097733    2.2998747    4.8158221 0.0044607025 
  387000    1.6959343 -0.0073760105    2.2811901    4.8161737 -0.0071457369 
  387200      1.71341 -0.0065292332    2.2542257    4.8162538 0.0032393532 
  387400    1.6786235 -0.0053333085    2.3056071    4.8166831 0.0071905079 
  387600    1.6874461 -0.0060093399    2.2931093    4.8167351 -0.0025197471 
  387800    1.6449475 -0.0045322608     2.356692    4.8180855 -0.0026691371 
  388000    1.6681469 -0.0063338196    2.3232255    4.8175955  0.002923562 
  388200    1.6569416 -0.0058096008    2.3398185     4.817915 -0.0013583777 
  388400    1.7079446 -0.0049052437    2.2619798    4.8174387 0.00049214691 
  388600    1.6673809 -0.0042193133    2.3224095    4.8177457 0.0015618429 
  388800    1.6564541 -0.0045785314    2.3403283    4.8189251 0.0063491257 
  389000    1.7014294 -0.0080357937    2.2752651    4.8178266 0.0085379586 
  389200    1.6846629 -0.0039403921    2.2963886    4.8179111 -0.0021892892 
  389400    1.6760224 -0.0062472279    2.3125109    4.8187736 0.0018401921 
  389600    1.7012034 -0.002606074    2.2710998    4.8187522 -0.0042401298 
  389800    1.6690531 -0.0052974721    2.3222218    4.8189867 0.0019552174 
  390000    1.6857972 -0.0088103044    2.3003646    4.8187176 0.0026890258 
  390200    1.7101488 -0.0077093913     2.262941    4.8189002 -0.00022046996 
  390400    1.6491175 -0.0072492243     2.354773    4.8197008 -0.00013177735 
  390600    1.6789744 -0.0067608138    2.3099658    4.8201402 -0.0030943217 
  390800    1.6798369 -0.0036032614    2.3063188    4.8209437 0.0040228646 
  391000    1.7024756 -0.0058812802    2.2742158    4.8205002 0.0047695934 
  391200    1.7389863 -0.0066812938    2.2204551    4.8206724 0.0057219484 
  391400    1.7060892 -0.0063204891    2.2698019    4.8210642 -0.00065952353 
  391600    1.6972354 -0.0088923474    2.2858448    4.8212626 0.0016023103 
  391800    1.6765021 -0.0079838163    2.3162959    4.8215412 0.0055334376 
  392000    1.7058546 -0.0099309601    2.2747269    4.8220271 9.8762599e-05 
  392200    1.6655874 -0.012923661    2.3386494    4.8225927 -0.0020540178 
  392400    1.6827933 -0.012633773    2.3123414    4.8223677  0.005230664 
  392600    1.6741022 -0.010632725    2.3238763    4.8228749  0.005586697 
  392800     1.693297 -0.0090269684    2.2934628    4.8228419 0.00056110585 
  393000    1.6884448 -0.0083435283    2.3002545    4.8230432 0.0061115958 
  393200    1.6891139 -0.0080407083    2.2989696    4.8230642 -0.0030249357 
  393400       1.6855 -0.0089906847    2.3055771     4.823304 -0.0044189823 
  393600    1.6848342 -0.0080478172    2.3059138    4.8235856 -0.0006987031 
  393800    1.6707193 -0.009416223    2.3287405    4.8238843  0.008069639 
  394000    1.6746196 -0.0066809689     2.320271     4.823997 -0.0011529628 
  394200    1.6780356 -0.0080034614    2.3170029    4.8245274   0.00270864 
  394400    1.6707682 -0.0081843299    2.3286984    4.8251475 0.0070402506 
  394600    1.6880753 -0.0062898154    2.3005014      4.82479 0.0037765784 
  394800     1.695502 -0.0037898047    2.2876408    4.8255626 -0.0032801265 
  395000    1.6850262 -0.0052428537    2.3045771    4.8253417 0.0013742471 
  395200    1.7274505 -0.0052683689    2.2413515    4.8256885 0.0038406099 
  395400    1.6855017 -0.0043517342    2.3037457    4.8261143 -0.00024556757 
  395600    1.7044549 -0.0051685373    2.2760117    4.8259761 0.0001493985 
  395800    1.6737558 -0.0061910508    2.3234937    4.8264148 -0.00018201567 
  396000    1.6302717 -0.0071068096    2.3898953     4.826714 -0.0033044352 
  396200    1.6973583 -0.0070012376    2.2889103    4.8264035 0.0054005811 
  396400    1.7031586 -0.0055190675    2.2791437    4.8268142 0.0067257724 
  396600    1.6553733 -0.0064460912    2.3519145    4.8270234 -0.011819886 
  396800    1.6820394 -0.0041926206    2.3094376     4.826775 0.0065243421 
  397000    1.7155971 -0.0032480147    2.2582024    4.8267903 0.0020516367 
  397200    1.6377767 -0.003228863    2.3756018    4.8275492 -0.007404964 
  397400    1.6846085 -0.0041458182    2.3060327    4.8272682 -0.0021568164 
  397600     1.682909 -0.0065023976    2.3116554    4.8279866 0.0022436218 
  397800    1.7026296 -0.0056910694    2.2809004    4.8276059 0.0016832502 
  398000    1.6680687 -0.0069280077    2.3349687    4.8286274 0.0032442894 
  398200    1.6618037 -0.0098753897    2.3473728    4.8286922 -0.0020199377 
  398400    1.6909668  -0.00642535    2.3008714    4.8293589 0.0022819429 
  398600    1.6573509 -0.0055946413    2.3504535    4.8293785 -0.0039427911 
  398800    1.7065636 -0.0069578895    2.2777844    4.8291205 0.00095301519 
  399000    1.6891379 -0.0085228964    2.3060034    4.8296518  0.003847548 
  399200    1.6521776 -0.0070222004    2.3598184    4.8295606 0.00030433062 
  399400    1.6998909 -0.0057554759    2.2875067    4.8300421 0.0044160525 
  399600     1.707973 -0.0098128402    2.2793127    4.8299067  0.012869475 
  399800    1.7107535 -0.0076580072    2.2735059     4.830423 -0.00098204115 
  400000    1.6844747  -0.00926474    2.3149851    4.8309011 -0.001550816 
  400200    1.7032476 -0.012717107    2.2904677    4.8310736 0.0024101629 
  400400    1.7293355 -0.013529695    2.2520878    4.8309893 0.0066221539 
  400600    1.7149664 -0.0098672537    2.2701787    4.8312021 0.0051942016 
  400800    1.6584208 -0.010192583     2.355621     4.831552 -0.0023467489 
  401000    1.6832441 -0.0076509464    2.3157903    4.8314754 0.0021452711 
  401200    1.6413638 -0.0096974779    2.3808604    4.8317164 -0.0022921299 
  401400    1.6646212 -0.0089520191    2.3457072    4.8321737 0.0038526134 
  401600    1.6741608 -0.0085459689    2.3314622    4.8326354 0.0025306434 
  401800    1.7038245 -0.0086325387    2.2873428    4.8328981 0.0035636513 
  402000    1.6576488 -0.0079962502    2.3559331    4.8329031 -0.0098720306 
  402200    1.6591994 -0.0067746457    2.3521305    4.8326466 0.0052302123 
  402400    1.6885715 -0.0086579991    2.3105933    4.8332574 0.0035737951 
  402600    1.6626764 -0.0072241897    2.3478068    4.8330857 -0.0058298422 
  402800    1.7064708 -0.0087969316    2.2838624    4.8332203 0.0036715779 
  403000    1.6502694  -0.01116421    2.3712363     4.833976 0.0016268996 
  403200    1.7401757 -0.0084661711    2.2333615    4.8335769 0.0054634646 
  403400    1.7248566 -0.0058490131    2.2542696    4.8341373 0.0068698819 
  403600    1.6616738 -0.0055167012    2.3492352    4.8347185 -0.0043643642 
  403800    1.7164153 -0.0049624446    2.2659173    4.8340174 0.00051490555 
  404000    1.6855927 -0.0051017371    2.3126355    4.8343905 -0.0022620325 
  404200    1.6893101 -0.0061650999     2.308317    4.8345813 0.0037767694 
  404400    1.7012693 -0.0046682423     2.289392     4.835081 0.0058436434 
  404600    1.6811134 -0.0062874393    2.3211707    4.8350251 0.0046463427 
  404800    1.7032725 -0.0063454832     2.288488    4.8355029 0.0021045454 
  405000     1.679709 -0.0061807905    2.3242219    4.8360776 -0.00020785836 
  405200    1.6786423 -0.0072523514    2.3268882    4.8360732 0.0076030282 
  405400    1.6930898 -0.0069977246    2.3055114    4.8366091 0.0013095244 
  405600    1.6966843 -0.0062879947    2.2991914    4.8363875 0.00033813082 
  405800    1.6714779 -0.005857959    2.3372978    4.8371371 0.0045558689 
  406000    1.7069226 -0.0062287324    2.2844181    4.8370215 0.0049443097 
  406200    1.6987205 -0.0059232014    2.2962353    4.8368486 -0.0015545023 
  406400    1.6312803 -0.004370571    2.3965827    4.8376496 -0.0010166763 
  406600    1.6908972 -0.0062912968    2.3091007     4.837618 -0.00015710938 
  406800    1.7006568 -0.0083092045    2.2967928    4.8379228 0.0014544765 
  407000     1.696961 -0.0079066901    2.3022983    4.8382904 -0.00096602456 
  407200    1.6841838 -0.0058579536    2.3193933    4.8382799 0.0049263788 
  407400    1.6727066 -0.0046741693    2.3357661    4.8386312 0.0038416894 
  407600    1.7014736 -0.0044292095    2.2921874    4.8384218 -0.0006015808 
  407800    1.7147689 -0.0052283435    2.2735248     4.838891 0.0040011661 
  408000     1.713092 -0.0070722194    2.2778284    4.8388368 -0.0029377868 
  408200    1.6718477 -0.0034638204     2.336708    4.8394958 0.0027715321 
  408400    1.6994101 -0.0089484954    2.3008262     4.839448 -0.001371194 
  408600    1.7434986 -0.0087717624    2.2347787    4.8396698 0.0090040132 
  408800    1.7036907 -0.010029945    2.2957616    4.8397189 0.0045752207 
  409000    1.6829133 -0.0072758637    2.3248577    4.8404219 -0.00074933515 
  409200    1.7042616   -0.0107565    2.2964974    4.8405839 0.0044019462 
  409400    1.7181318 -0.009112794    2.2743675    4.8408905 0.0055583678 
  409600    1.6858986 -0.012144018    2.3260379    4.8412092 -0.0042429179 
  409800    1.6733171 -0.0088198607    2.3420533    4.8416879 -0.00022256618 
  410000    1.6717278 -0.010959015    2.3468782    4.8419911 0.00024367449 
  410200    1.6993602 -0.010437947    2.3047171    4.8417745 0.0054909523 
  410400     1.694697 -0.0057987278    2.3078689    4.8425751 -0.0040512147 
  410600    1.6911467 -0.0058771243    2.3135611    4.8428666 -0.0076623747 
  410800    1.6534359 -0.0073020127    2.3721289    4.8434776 0.0042686953 
  411000    1.6363927 -0.0073409975    2.3980587    4.8438191 2.5241297e-06 
  411200    1.6797349 -0.0055285228    2.3316851    4.8442319 0.00031641475 
  411400    1.7107967 -0.0058012773    2.2851911    4.8440296 0.0017436624 
  411600    1.7089349 -0.0042494866    2.2864553    4.8440545 -0.0020993349 
  411800    1.6886534 -0.0046953808    2.3178155    4.8445652 0.0031541495 
  412000    1.7002915 -0.0057749497    2.3013134      4.84443 0.0012884014 
  412200    1.6937918 -0.0046693227    2.3101788    4.8446574 0.0098281097 
  412400    1.6628261 -0.0044238278    2.3570928    4.8453964 -0.0027681359 
  412600    1.7620163 -0.0048567306     2.208412    4.8449779 0.0058138286 
  412800     1.680756 -0.0052844085    2.3314697    4.8457913 0.0020263269 
  413000    1.6738537 -0.0094927451    2.3459159    4.8456821 0.0022450611 
  413200    1.6789947 -0.0084783725    2.3372626    4.8457499 -0.0015022925 
  413400    1.6710985 -0.0087072204    2.3496229    4.8460443 -0.000890807 
  413600    1.7666716 -0.0068619382    2.2041684    4.8457078 0.0048143965 
  413800    1.6893833 -0.0063637186    2.3203289    4.8465044 -0.00079056238 
  414000    1.6649331 -0.0097148236    2.3601915    4.8463627 -0.0038619955 
  414200    1.6750258 -0.0092941187    2.3442171    4.8459389 -0.0036489805 
  414400    1.7005429 -0.010299453    2.3071236    4.8460925 0.0016344066 
  414600    1.6650547 -0.0087442569    2.3594288    4.8467529 0.0054800099 
  414800    1.7247427 -0.0090161936    2.2704239    4.8469538 0.0025493498 
  415000    1.6805021 -0.0099149116    2.3388197    4.8481302 0.0046439158 
  415200    1.6816352 -0.0097845886    2.3369636    4.8481031  0.004780103 
  415400    1.6756193 -0.0074924125    2.3446251    4.8490384 -0.00018896012 
  415600    1.6989259 -0.0078968815    2.3101173    4.8490647 0.0027061561 
  415800    1.7126102 -0.0064641434    2.2881069    4.8490012 -0.0035222937 
  416000    1.7008847 -0.0095413056     2.308823    4.8490625 -0.0053483769 
  416200    1.6835641 -0.0083906349    2.3345268    4.8499518 0.0028189094 
  416400    1.7190156 -0.0093766673    2.2823103    4.8498943 0.00034271769 
  416600    1.6890693 -0.0098307915    2.3279459    4.8501836 0.0022753569 
  416800    1.6855407 -0.007388277    2.3314304    4.8508209  0.011697468 
  417000    1.6861869 -0.0072173981     2.329898    4.8504281 -0.0031805111 
  417200    1.6766043 -0.0081757208    2.3458272    4.8510337 -0.0054343451 
  417400    1.7271029 -0.0066509783    2.2684272    4.8508605 0.0097009285 
  417600    1.7100689 -0.0090267581    2.2961162    4.8506382 0.0066149532 
  417800    1.7051144   -0.0105379    2.3056893    4.8512729 -0.00052933682 
  418000    1.7097945 -0.011606104     2.299786    4.8513172  0.003390183 
  418200    1.7024574  -0.01590694    2.3148992    4.8511307 0.0095599648 
  418400    1.6967102 -0.0096632798    2.3174293    4.8512888 -0.0063132104 
  418600    1.7089628 -0.0097526054    2.2996211    4.8517591 0.0034710831 
  418800    1.6377728 -0.012328263    2.4095451    4.8523871 -0.0003952747 
  419000    1.6960573 -0.012218687    2.3220077     4.852333 0.0043758648 
  419200    1.7522557 -0.013641169    2.2388356    4.8519849 0.0091670611 
  419400    1.6704261 -0.014765454    2.3629376    4.8522927 0.0040481401 
  419600    1.6601246 -0.013647719     2.377458    4.8524881 -0.0065059881 
  419800     1.714549 -0.008750939     2.291332    4.8528459 0.0041210452 
  420000    1.6725134 -0.0071124906    2.3529517    4.8530888 -0.0022751776 
  420200    1.7081266 -0.0097302451    2.3020785    4.8529853 0.0048812571 
  420400    1.6838974 -0.010585306    2.3397666    4.8534966 -0.0045900232 
  420600    1.7229563 -0.010907429    2.2818112    4.8537719 0.0075092898 
  420800    1.7057327   -0.0110285    2.3081749    4.8541947 0.0031334016 
  421000    1.6862422 -0.010216103    2.3371575    4.8547717  0.010550502 
  421200    1.6734139 -0.0071697036    2.3536713    4.8551011 0.00044593472 
  421400    1.6854817 -0.010199293     2.339262    4.8557531 -0.00065695284 
  421600    1.6610841 -0.0078206925    2.3735324    4.8558278 -0.0064419645 
  421800    1.7055684 -0.0091025642    2.3084917    4.8561911 -0.0045045392 
  422000    1.6816198 -0.0086693763     2.344099    4.8563305 0.0019556336 
  422200    1.6898115 -0.009219357    2.3324969    4.8564586 0.0048996051 
  422400    1.6905296 -0.0075605042    2.3296881    4.8563851 -0.0013590678 
  422600    1.6758919 -0.0070092982    2.3514287    4.8567337 0.00081376332 
  422800    1.6878244 -0.0056317156    2.3322104    4.8567808 -0.0045643128 
  423000    1.6931576 -0.0061248719     2.324222    4.8562943 0.0048321283 
  423200    1.6716628 -0.0050179412    2.3563633    4.8573199 0.0070442886 
  423400     1.701247 -0.0055776329    2.3121208    4.8568672 -0.0063909857 
  423600    1.6799294 -0.006226172    2.3447644    4.8569051 -0.0051253012 
  423800    1.6863036 -0.0049143018    2.3339691    4.8569772 0.0035518338 
  424000       1.7324 -0.0044431765    2.2652233    4.8578052 0.0054195605 
  424200    1.6972265 -0.0078951957    2.3214195    4.8578211  0.003223904 
  424400    1.6970909 -0.0046240358    2.3191118    4.8585813 0.0080092659 
  424600    1.6835223 -0.0051888606    2.3397236    4.8582877 0.0012114786 
  424800    1.7003546 -0.0048998659    2.3142774    4.8583637 0.0020952724 
  425000    1.6724494 -0.0042391976    2.3555713    4.8584858 0.0029841605 
  425200    1.7095547 -0.0062184157    2.3019205    4.8584801  0.007351097 
  425400    1.6687229 -0.0052489884    2.3627377    4.8590559 -0.0030556425 
  425600    1.6617682 -0.004135137    2.3725758    4.8595823 0.0020190921 
  425800    1.6921536 -0.0061177213    2.3289198    4.8594942 0.00065101903 
  426000    1.6766657 -0.0065091032    2.3531645    4.8601297 -0.0035342135 
  426200     1.672242 -0.0068115745    2.3601672    4.8601984 0.00096618162 
  426400    1.6841169 -0.0077297377    2.3439015     4.860816  -0.00222555 
  426600    1.7203058 -0.0090218189    2.2909146    4.8607875 0.00073915878 
  426800     1.730659 -0.0088520489    2.2760983    4.8616613 0.0034878606 
  427000    1.6468369 -0.0048486285    2.3985201    4.8624297 -0.0020979473 
  427200    1.6870801 -0.006101111    2.3391881    4.8621735 -0.00032415179 
  427400    1.7085362 -0.0079601899    2.3089938    4.8622846 -0.0044037068 
  427600     1.707318 -0.0093235532    2.3128559    4.8629573 -0.00057111022 
  427800    1.6845378 -0.0094274263    2.3471965    4.8630443 -0.00028271486 
  428000     1.683248 -0.0089876569    2.3494929    4.8638471 -0.0049174405 
  428200    1.6800853 -0.010218637    2.3555762    4.8639582 0.0052920721 
  428400    1.6939256 -0.010597582    2.3352567    4.8640076 0.0058915903 
  428600    1.6668277 -0.0099020673    2.3756599    4.8644841 -0.0084730348 
  428800    1.6651677 -0.0086849632    2.3771243     4.864677 -0.00062568225 
  429000    1.6938056 -0.0092517569    2.3346559    4.8645727 1.515706e-05 
  429200    1.6606379 -0.0076851463    2.3831179    4.8648799 0.0076365112 
  429400     1.691742 -0.0087234343    2.3378584    4.8652101 0.0063031104 
  429600    1.6888828 -0.0078632752    2.3410762    4.8650018 -0.003137448 
  429800    1.6986234 -0.0065233589    2.3254152    4.8652827 0.00091131355 
  430000    1.6829313 -0.0037999633    2.3463495    4.8654166 -0.00065382619 
  430200     1.691469 -0.0038725418    2.3336847    4.8654779 -0.00019199242 
  430400    1.6832229 -0.0073814208    2.3497823    4.8657051 0.0082890436 
  430600    1.6741352 -0.0082933257    2.3652121    4.8665996 0.0031049659 
  430800    1.6741327 -0.007247822     2.364344    4.8667732 -0.0017931486 
  431000    1.7119442 -0.0062841962     2.306787    4.8668627 -0.00099133635 
  431200    1.6972165 -0.0079994853    2.3305852    4.8668676 0.0028585726 
  431400    1.7071558 -0.006161201    2.3148198    4.8678403 0.00072945619 
  431600    1.6926462 -0.0046356695    2.3348822    4.8676771 -0.0019146596 
  431800    1.7177343 -0.0056345912    2.2988756    4.8682809 0.0014757353 
  432000    1.6986004 -0.0056991869    2.3277914    4.8684486 0.0041170352 
  432200    1.7020469 -0.0053673326    2.3226433    4.8687991   0.00628114 
  432400    1.6909503 -0.003615264    2.3379505    4.8692234 0.0054846937 
  432600    1.6764933 -0.0049261023    2.3613994    4.8696891 0.0016055897 
  432800    1.6828912 -0.0057527111     2.351837    4.8688912 -0.00066931411 
  433000    1.6564642 -0.0083084366    2.3943052    4.8691871 0.0038785309 
  433200    1.7081245 -0.0057363772    2.3142072    4.8691048 -7.6744439e-05 
  433400    1.7267783 -0.0093371528    2.2900573    4.8693178 0.0022115284 
  433600    1.7183972 -0.008421238    2.3018497    4.8694621 0.0061134085 
  433800    1.7107786 -0.010258208    2.3149286     4.869283 0.0062778766 
  434000    1.7070275 -0.009347563    2.3202305    4.8698724 -0.0018504675 
  434200    1.7078724 -0.006811908    2.3166499    4.8700939 0.0015452384 
  434400    1.6863324 -0.0040039981     2.346702    4.8706636 0.0012188378 
  434600    1.6709478 -0.0061507333    2.3719009    4.8706528 -0.0029693864 
  434800     1.669752 -0.0063098874    2.3739809    4.8707811 0.0092678784 
  435000    1.7027239 -0.0061221103    2.3253843    4.8718001 0.0033028992 
  435200    1.6916979 -0.0066901224    2.3420959    4.8714147 -0.0006070306 
  435400    1.6963597 -0.0060340379    2.3349758    4.8719392 -0.0039310074 
  435600    1.6696053 -0.0064586364    2.3753484    4.8717799 0.0072187042 
  435800    1.6954772 -0.0055515481    2.3356561     4.871779 0.0015222918 
  436000    1.6485037 -0.0066770134    2.4079007    4.8724807 -0.0025156477 
  436200    1.7040642 -0.0071453945    2.3251712     4.872573 0.00059595207 
  436400     1.674003 -0.0072481568    2.3709354      4.87317 0.0087210738 
  436600    1.6680879 -0.0064366999    2.3789226    4.8731013 0.00021459175 
  436800    1.7154906 -0.0065482564    2.3085837    4.8737119  -0.00108376 
  437000    1.6792471 -0.0060088325    2.3621054    4.8734406 -0.0049995741 
  437200    1.7144915 -0.0060947184    2.3098689    4.8739529 0.0065165751 
  437400    1.6788911 -0.0024838339     2.360885    4.8752115 -0.0068397965 
  437600    1.7021032 -0.007185235    2.3303956    4.8748178 -0.0032534824 
  437800    1.7027159 -0.0042018388    2.3258952    4.8742194 -0.0023654052 
  438000     1.661476 -0.0079690437    2.3919674    4.8747019 0.0009171826 
  438200    1.6877649 -0.0065234224    2.3515607    4.8751504 0.0030506158 
  438400    1.6925088 -0.0036656806    2.3419468    4.8755057 -0.0014656235 
  438600    1.6486075 -0.0058568553    2.4098619    4.8754175 0.0015034516 
  438800    1.6703348 -0.0065783173    2.3782048    4.8756103 -0.0062880184 
  439000    1.6856283 -0.0071529715    2.3556351    4.8753921 -0.00045574792 
  439200    1.7178849 -0.012473445     2.312839    4.8756313 0.0017692124 
  439400    1.6478325 -0.010737823    2.4170785    4.8765913 -0.0068556538 
  439600    1.6944314 -0.010971253    2.3473203    4.8764558 0.00071020892 
  439800    1.6819036 -0.010561094    2.3655365    4.8763018 0.0034692227 
  440000    1.7127726 -0.0072206394    2.3166759    4.8770571 0.0029138906 
  440200    1.6624824 -0.0050799185    2.3903641    4.8774963 -0.00019751421 
  440400    1.6876743 -0.0080254296    2.3549423    4.8768941 -0.00022844961 
  440600    1.6875998 -0.010816836    2.3579455    4.8769942 0.00061852232 
  440800    1.6947705 -0.008499431    2.3456284     4.877744 0.00076521893 
  441000    1.6721414 -0.0079715852     2.379063    4.8777834 -0.001323522 
  441200    1.7020492 -0.0090662984    2.3352283    4.8776884 -0.0027122835 
  441400     1.691552 -0.0096886919    2.3519111    4.8780126 -0.00083095624 
  441600    1.6934388 -0.0082671453    2.3477691    4.8781207 -0.0022339915 
  441800     1.714419 -0.0099975466    2.3182995    4.8783719 -0.0014762134 
  442000     1.724558 -0.0083724664    2.3018995    4.8787962  0.002673166 
  442200    1.7251531 -0.0093885145    2.3025809    4.8793537 -0.0010266149 
  442400    1.7039246 -0.0084377532    2.3342407    4.8801407 0.0022196785 
  442600    1.7412922 -0.010860778    2.2806296    4.8801241 -0.0015323743 
  442800     1.679963 -0.007820903    2.3702057    4.8808022 -0.0038424546 
  443000    1.6950253 -0.0099431874    2.3498732     4.880927 -0.0025208866 
  443200    1.7140661 -0.0085880819    2.3199757    4.8809285 -0.0014693364 
  443400    1.7177425 -0.0059272398    2.3127597    4.8818846 0.0036466628 
  443600    1.7177639 -0.010829477     2.317613    4.8818678 0.0051486547 
  443800    1.7087205 -0.0080008619    2.3289837    4.8825101 -0.0012429267 
  444000    1.7330503 -0.010060417     2.294228    4.8821675 -0.0027170085 
  444200    1.7110594 -0.0090876619    2.3266886    4.8826345  0.005605749 
  444400    1.6870746 -0.0097122716    2.3635311     4.882897 0.0046373298 
  444600    1.6769041 -0.0069474165    2.3770502    4.8839345 0.0031315882 
  444800    1.7197901 -0.010145845    2.3169463    4.8849222  0.006295223 
  445000    1.7045718 -0.0090924102    2.3391276    4.8853433 0.0010419453 
  445200    1.6996923 -0.0077692262    2.3451885    4.8854126 0.0067861303 
  445400    1.7036747 -0.0064111453    2.3381698     4.885722 -0.0028204809 
  445600    1.7429932 -0.0071172403    2.2796799     4.885468 -0.0028974025 
  445800    1.7176576  -0.00539482    2.3157516    4.8852817 0.0050869963 
  446000    1.6859768 -0.0075715373    2.3658678    4.8857287 0.0047333498 
  446200    1.7126696 -0.0070751949    2.3258837    4.8862559 0.0070588864 
  446400    1.7272104 -0.0062910654    2.3033026    4.8862569 6.7508696e-05 
  446600    1.7128207 -0.0051938542    2.3237668    4.8862469 0.0088515544 
  446800    1.7074321 -0.0058966005    2.3334953    4.8871946  0.002275203 
  447000    1.6932944 -0.0066995713    2.3553296    4.8870322 -0.00082585008 
  447200    1.7097185 -0.0072843824    2.3314869     4.887226 -0.0059301595 
  447400    1.7042219 -0.0044861361    2.3380129    4.8883102 0.0030652602 
  447600    1.6945766 -0.0062826824    2.3531443     4.887186 0.0043749346 
  447800    1.6754724 -0.0064638225    2.3813909    4.8866125 0.00034805417 
  448000    1.7228258 -0.0050886971    2.3096177    4.8872015 -0.0053307133 
  448200    1.7448947 -0.0065214921    2.2778793    4.8871136 0.0025122302 
  448400    1.7215608 -0.0077700364    2.3143221    4.8873282 0.00074253485 
  448600    1.7152335 -0.0077754708    2.3244925     4.888008 0.0076348635 
  448800    1.7238415 -0.0055788605    2.3092836    4.8878998  -0.00499357 
  449000    1.7377499 -0.0048014863    2.2882131    4.8884567 -0.0023840571 
  449200    1.7006853 -0.0055534514    2.3445375    4.8884659  0.013532944 
  449400    1.6847189 -0.004666303    2.3677932    4.8886736 -0.0033520316 
  449600    1.7034514 -0.0036386532    2.3390919    4.8890818 -0.0005083473 
  449800    1.6922716 -0.0057366938    2.3581115    4.8892438 0.0022984039 
  450000    1.7322863 -0.0041440679    2.2963851    4.8890957  0.014096411 
  450200    1.6896583 -0.005338521    2.3620116    4.8896245 -0.0072797989 
  450400    1.7235299 -0.0057006129      2.31074    4.8887673 -0.0026056329 
  450600    1.6610853 -0.0032669809    2.4028324    4.8896833 -0.0038504997 
  450800    1.6973238 -0.0038582084    2.3497796    4.8903641 0.0030766391 
  451000    1.7321979 -0.0064328943    2.2996059    4.8898951 0.0062431775 
  451200    1.7063893 -0.0081710876    2.3409913     4.890853 -0.0078935556 
  451400    1.7117007 -0.0076020381    2.3325813    4.8909742 0.0028595518 
  451600    1.6824677 -0.0072004182    2.3763428    4.8913145 -0.00018669328 
  451800    1.6809549 -0.0072662902    2.3790569    4.8916949 -0.001739141 
  452000    1.6546503 -0.0034634522    2.4150485    4.8920562 0.00027646398 
  452200    1.6936885  -0.00379005    2.3566668    4.8918698 0.00078268094 
  452400    1.7216792 -0.0043092901      2.31549    4.8921344 2.2204756e-05 
  452600     1.733429 -0.0052664858    2.2990839    4.8923851 -0.0039521524 
  452800    1.7274726  -0.00347375    2.3062075    4.8923723 0.00020576037 
  453000    1.6895821 -0.0067509043    2.3667856    4.8928719   0.00562602 
  453200    1.6780751 -0.0061186109    2.3837546    4.8932231 0.0028949051 
  453400    1.6887841 -0.0063505503    2.3685297      4.89382 0.0084538423 
  453600    1.6482938 -0.0043050303    2.4274761    4.8941134 -0.0042213358 
  453800     1.723966 -0.0046181086    2.3139571    4.8937208 0.0038071905 
  454000    1.7093037 -0.0069868785    2.3387616    4.8941765 0.0033328375 
  454200    1.6857989 -0.0059197582    2.3733637    4.8946098 -0.0035576465 
  454400    1.6829002 -0.0029762022     2.375173    4.8950172 -0.00059228652 
  454600    1.7178029 -0.0036686789    2.3233109    4.8947848 -0.0015014449 
  454800    1.6723053 -0.0047282684    2.3927629    4.8949723 -0.0042313974 
  455000    1.7264044 -0.007611758    2.3150754    4.8955007 0.0013837607 
  455200    1.6653289 -0.0031912442    2.4023471    4.8956353 0.0057295578 
  455400    1.6986632 -0.0046613604    2.3534183    4.8952076 -0.0077710929 
  455600    1.7277586 -0.0036129224    2.3090857      4.89554 0.0033466644 
  455800    1.7086941 -0.0035087901    2.3381745    4.8961535 0.0036089889 
  456000    1.7320018 -0.0038771144    2.3035358    4.8960869 -0.0023609809 
  456200    1.7086004 -0.0048693753    2.3405596    4.8970376 0.0017048927 
  456400    1.6768735 -0.0064934375    2.3899899    4.8972823 0.0050429769 
  456600    1.7280354 -0.0061393965    2.3125876    4.8969303 -0.00046390844 
  456800    1.7404566 -0.006496834    2.2944972     4.897103 0.0098344789 
  457000    1.6757399 -0.0028725225    2.3889968    4.8982108  0.003688109 
  457200    1.7153422 -0.0062799719    2.3330297    4.8982036 -0.0021596911 
  457400    1.7502983 -0.0054630644    2.2794943    4.8978874  0.010030954 
  457600    1.7512687 -0.0065369595    2.2789631    4.8977372 0.0027484086 
  457800    1.7143635 -0.0063955871    2.3347475    4.8983385 0.0012945843 
  458000    1.6803042 -0.0065887593    2.3861951    4.8985352 -0.0023316902 
  458200    1.7077688 -0.0063518204    2.3448474    4.8985962 0.0066553379 
  458400    1.7155459 -0.0071581368    2.3337729     4.898374  -0.00452713 
  458600    1.7275324 -0.0078761586    2.3167022    4.8985542  0.013947617 
  458800    1.6890976 -0.0054550303    2.3727769    4.8994327 0.0050425713 
  459000    1.7363424  -0.00751857    2.3044118    4.8998284   0.00344498 
  459200    1.6796271 -0.0051499485    2.3871327    4.8998964 -0.012781883 
  459400    1.7078877 -0.0037548632    2.3432395    4.8997635 0.0022835209 
  459600    1.6945971 -0.0043485977    2.3639714    4.8999779 -0.00068837704 
  459800    1.6688246 -0.0060015286    2.4048993    4.9006175 -0.0018245806 
  460000    1.6874361 -0.003764502    2.3744761    4.9003318 0.0039169273 
  460200    1.7236015 -0.007036621    2.3228856    4.8996844 -0.0028100534 
  460400    1.7077896 -0.0060235904    2.3460925    4.9002007 0.0023989334 
  460600    1.7092943 -0.0046188698    2.3433717    4.9011403 0.0049237032 
  460800    1.7076089 -0.0056699793    2.3468096    4.9010007 -0.0056627175 
  461000    1.7471909 -0.0081739242    2.2898559      4.90088 0.0033247455 
  461200    1.7435456 -0.0061888985    2.2950942    4.9026386 0.0031444433 
  461400     1.722381 -0.0022452501    2.3235501    4.9033105 0.00095509124 
  461600    1.7223034 -0.0042429525    2.3251337    4.9027801 0.0060305637 
  461800    1.7124513 -0.006647737    2.3426114    4.9030839 -0.0037116414 
  462000    1.7065027 -0.0040243987    2.3490225    4.9032007 -0.0036800806 
  462200    1.7109953 -0.007028619    2.3454018    4.9033108 0.0082165829 
  462400     1.756195 -0.0058815107    2.2767127    4.9035271 0.0030266948 
  462600    1.7366354 -0.0073989203    2.3081863    4.9041616 -0.0049642605 
  462800    1.6978727 -0.0069279292    2.3655381    4.9038756 0.0082569631 
  463000    1.7110145 -0.007394928    2.3463298    4.9039012 -0.0032057559 
  463200    1.7162197 -0.0062291015    2.3378338     4.904374 -0.0016006371 
  463400    1.7124041 -0.0044917144    2.3432582    4.9058159 0.0084297574 
  463600    1.7216909 -0.0069896295    2.3318939    4.9058755 -0.0020930983 
  463800    1.6996592 -0.0076052945    2.3657884    4.9061267 0.0040530019 
  464000    1.7150598 -0.0098171511    2.3451885    4.9064019 0.0041421476 
  464200    1.7106682 -0.010970458    2.3532232    4.9066998 -0.0036267912 
  464400    1.7008982 -0.011480743    2.3687438    4.9070641 -0.0023914419 
  464600    1.6936694 -0.0073147008    2.3761673     4.907817 0.0047897693 
  464800    1.6838837 -0.0086380799    2.3929001    4.9085568 0.00080181356 
  465000    1.7187486 -0.011129666    2.3425558    4.9079865 0.00057974019 
  465200    1.6639876 -0.0093856236    2.4237663    4.9088494 0.0028517613 
  465400    1.7009828 -0.0096579696    2.3681678    4.9084377 0.00066271304 
  465600    1.7089746 -0.0068959809    2.3539959    4.9090082 -0.0038411117 
  465800    1.7243389 -0.0075486937    2.3319619     4.909354 -0.0031497713 
  466000    1.7120708 -0.0062953616    2.3491377    4.9093922 0.0038468923 
  466200    1.6966232 -0.0071049104    2.3734221    4.9097095 0.0049380422 
  466400    1.6866364 -0.0083086711    2.3903077    4.9104203 -0.0024310769 
  466600    1.7052568 -0.0082560275    2.3622298    4.9103087 -9.6994107e-05 
  466800    1.6978521 -0.0084580709    2.3735208    4.9102974 0.00070674866 
  467000    1.7357087 -0.0091559169     2.317462    4.9102912  0.003809006 
  467200    1.7261686 -0.0090392841    2.3320502    4.9106945 -0.0021277228 
  467400    1.6708779 -0.010018643    2.4163858     4.911165 -0.0049861443 
  467600    1.7225662 -0.0062010369     2.335045    4.9111273   0.01191974 
  467800    1.7138545 -0.0077569134    2.3496886    4.9111553 0.0075157217 
  468000    1.7125729 -0.0075967224    2.3521755    4.9118813 -0.0049877349 
  468200      1.69578 -0.0072006798    2.3772973    4.9122249 0.0061370112 
  468400    1.7174793 -0.0086269483    2.3458466    4.9118772 0.0013691297 
  468600    1.7208474 -0.0091047906    2.3413119    4.9119138 -0.00048423132 
  468800    1.6904168 -0.0083129337    2.3867194    4.9124949 0.0019466969 
  469000     1.729865 -0.0082397132    2.3276188     4.912604 -0.006728117 
  469200    1.7566921 -0.0078360437    2.2872302    4.9128353 0.0022181686 
  469400    1.7379516 -0.0063929826    2.3144248    4.9133793 0.0022809441 
  469600    1.7143848 -0.0068429116    2.3505689    4.9137446 0.0010652086 
  469800    1.7029636 -0.0064398012     2.367416    4.9138734 0.0038924028 
  470000    1.6998926 -0.0055974561    2.3723208    4.9150169 -0.002608565 
  470200    1.7177294 -0.008346754    2.3475348    4.9142205 0.0050134884 
  470400    1.6833779 -0.0084614658    2.3997755    4.9148506  0.003665325 
  470600    1.6922672 -0.0080581543    2.3865909     4.915395 -0.0048551817 
  470800    1.7239879 -0.011398075    2.3421315    4.9151479 -0.001638778 
  471000    1.7103163 -0.010406157    2.3620158    4.9155293 -0.0038211727 
  471200    1.7361388 -0.0082053155    2.3211261    4.9155506 0.0035901941 
  471400    1.7409289 -0.0077998168    2.3139638    4.9159748 0.0074705159 
  471600    1.7207132 -0.010421853     2.347118    4.9162017 -0.0003274652 
  471800    1.7439969 -0.011509378    2.3136355     4.916536 0.0018485429 
  472000      1.69166 -0.013456784    2.3936562    4.9161516 0.0023499129 
  472200    1.7520506 -0.013176848    2.3029888     4.916295 0.0031788702 
  472400    1.6875606 -0.012258809    2.3997696    4.9173176 0.0019958704 
  472600    1.7239275  -0.01092742    2.3440418    4.9174385 -0.0014448113 
  472800    1.7210439 -0.010520393    2.3486674    4.9181483 -0.0024383198 
  473000    1.7297297 -0.013573975    2.3382041    4.9176521 0.0079110325 
  473200    1.7464079 -0.012002524    2.3120691    4.9180909 0.0040255218 
  473400    1.7439825 -0.0065811872    2.3103602    4.9181673 -0.0069723398 
  473600    1.7272738 -0.007767236    2.3371055    4.9186788 0.0089235955 
  473800    1.6696674 -0.0094839821    2.4253731    4.9188723 0.0035882502 
  474000    1.7382283 -0.010362214    2.3236216    4.9190216 -0.0027102428 
  474200    1.7262918 -0.010770006    2.3422888    4.9193871 0.0040138311 
  474400    1.7239962 -0.0057067702    2.3406355    4.9193558  0.008631674 
  474600     1.754348 -0.0097784463     2.298835    4.9189836 -0.0019411812 
  474800    1.7151447 -0.005243517     2.353778    4.9196923 0.0017271579 
  475000    1.7043395 -0.0071214343    2.3718521    4.9196905 -0.00014986296 
  475200    1.6960972 -0.0063106076    2.3837697     4.920063 0.0035328473 
  475400    1.7163413 -0.0043167625    2.3520112    4.9206461 0.0014597747 
  475600    1.6873527 -0.0066332367    2.3975689    4.9204309 0.0034722601 
  475800    1.7194001 -0.0081342983     2.351077    4.9204797 -0.0045985999 
  476000    1.7083948 -0.0054779392     2.365754    4.9213152 -0.0013275189 
  476200    1.7060977 -0.0063342114    2.3699119    4.9211733 0.0034111195 
  476400     1.682705 -0.0051018905    2.4040993    4.9215252 0.0041998569 
  476600    1.7239498 -0.0049693668    2.3422451    4.9216331 -0.0030856448 
  476800    1.7085039 -0.0066468487    2.3670656    4.9216214 0.0023663783 
  477000    1.7260442 -0.006107063     2.340531    4.9219211  0.005138152 
  477200    1.7029785 -0.0064168326    2.3752782     4.921781 0.00058009094 
  477400    1.6861595 -0.0074091503    2.4018952    4.9221924 0.0044742576 
  477600    1.7248249 -0.0044684136     2.341353    4.9225538 0.0029151557 
  477800    1.7137204 -0.0052765223    2.3593245    4.9230706 -0.0005349779 
  478000    1.7356613 -0.0049913243    2.3260753    4.9229981 -0.00039886779 
  478200    1.7387077 -0.0061253881    2.3235411    4.9238967 0.0068150192 
  478400    1.7367779 -0.0043799711    2.3244828    4.9236908 -0.0023154302 
  478600    1.7350557 -0.0040308886    2.3276289    4.9246043 1.2496596e-05 
  478800     1.689423 -0.0071867433    2.3991596    4.9245715 -0.0033665865 
  479000    1.7577747 -0.0077542334    2.2978299    4.9251397 0.0012562498 
  479200    1.7417437 -0.0082639918    2.3221185    4.9248867 0.0032801893 
  479400    1.7219597 -0.0082993875    2.3521255    4.9252003 -0.0018462978 
  479600    1.7348197 -0.0047220357    2.3292809    4.9252112 0.0033717576 
  479800    1.7001834 -0.0065969849    2.3838154    4.9259479 0.0030882967 
  480000     1.693202 -0.0045459513    2.3922973    4.9260151 -0.0098488578 
  480200    1.7242178 -0.0055524732    2.3466741    4.9258808 0.0084385141 
  480400    1.6929061 -0.0082287541    2.3966678    4.9262592 -0.0016479362 
  480600    1.7349232 -0.0066183376    2.3317889    4.9259783  0.002587303 
  480800    1.7242851 -0.0051613868    2.3466392    4.9263378 0.0029014904 
  481000    1.7033421 -0.0092453802     2.382601    4.9268203 0.0034978283 
  481200    1.7120895 -0.010161125    2.3701187    4.9265354 -0.00072501706 
  481400    1.7131472 -0.011703648    2.3700667    4.9265264 0.0065121316 
  481600    1.6981557 -0.0090719065    2.3896157    4.9262335 -0.001866186 
  481800    1.7208908 -0.0073665564    2.3540135    4.9264187 0.0030726228 
  482000    1.7518717 -0.0083880467    2.3088827    4.9267096  0.012249044 
  482200    1.7066334 -0.0077085739    2.3764185    4.9271085 -0.001515007 
  482400    1.7029032 -0.0057104197    2.3807035    4.9277998 -0.0038862913 
  482600    1.7175607 -0.0072893416    2.3599559    4.9274461 -0.0016807254 
  482800    1.6952095 -0.0068767081    2.3935324    4.9279289 0.0020263002 
  483000    1.7678995 -0.0081304051     2.285578    4.9276897  0.005087056 
  483200    1.6904684 -0.0083601804    2.4026914     4.928497 0.00068138473 
  483400    1.7301137  -0.00842855    2.3438446    4.9290138 -0.0029243114 
  483600    1.6947352 -0.0058337769    2.3941361    4.9288645 -0.0020558958 
  483800    1.6947552 -0.0054768752    2.3941495    4.9292647 0.00015855502 
  484000    1.7802806 -0.008030366    2.2680874    4.9288595 0.0099190851 
  484200    1.6943026 -0.0093871671    2.3990843    4.9296107 -0.0075167615 
  484400    1.7090181 -0.0075641425    2.3753633    4.9297726 -0.0017436469 
  484600    1.7088028 -0.010525206    2.3785161    4.9296417 -0.00055432197 
  484800    1.7388765 -0.011068281     2.334328    4.9299937 -0.00024723581 
  485000    1.7227516 -0.0088238582    2.3562193    4.9299567 0.0060563702 
  485200    1.6891089 -0.0074157903    2.4059731    4.9306851 0.0025877323 
  485400    1.7194626 -0.0072601847    2.3600388    4.9304093 -0.0055109835 
  485600    1.7214815 -0.0097558592    2.3600645     4.930966 0.0096400904 
  485800    1.7091285 -0.0095909572    2.3788518    4.9313998 -0.00032385119 
  486000    1.7127529 -0.0075878323    2.3713882    4.9313727 0.00077473267 
  486200    1.6893854 -0.0061556657    2.4055193    4.9319059 -0.0041151494 
  486400    1.7364846 -0.0095700431    2.3382959    4.9318742 -0.00018253106 
  486600    1.7250206 -0.0097856831    2.3552021    4.9313792 -0.0011612008 
  486800    1.7499516 -0.010501853    2.3182812    4.9311159 0.0028800036 
  487000     1.731211 -0.0080402385    2.3442891    4.9314916 0.0038350245 
  487200    1.7293644 -0.0049871763    2.3442284    4.9317157 0.0039541354 
  487400    1.6872433 -0.0088300971    2.4116578    4.9321588 -0.0028726662 
  487600    1.6944898 -0.0068575729    2.3990112    4.9323479 -0.00089844759 
  487800    1.7235957 -0.0056341351    2.3540313    4.9322238 0.0062903106 
  488000    1.7017265 -0.006487802    2.3882614    4.9328163 -0.001357087 
  488200    1.6940528 -0.0071547845    2.4006817     4.933066 0.0038557025 
  488400     1.727484 -0.0050801867    2.3488503    4.9334256 0.0081476452 
  488600    1.7097349 -0.0087115376    2.3795526    4.9338891 -0.0040100137 
  488800    1.7453819 -0.0077726195    2.3251272    4.9338407 0.0028588833 
  489000    1.7272953 -0.0065577818    2.3513011     4.934116 0.0028197715 
  489200    1.7274381 -0.0075096691    2.3526353    4.9347124 -0.001360142 
  489400    1.7091027 -0.0048206923    2.3775065    4.9347861  0.004014594 
  489600    1.6830992 -0.0057869184    2.4176803    4.9350121 -0.0071599553 
  489800    1.7320296 -0.0063565638    2.3447932    4.9349065 -0.0031573347 
  490000    1.6778526 -0.0062639145     2.426664    4.9356537 0.0029676924 
  490200    1.7143506 -0.0081085479    2.3736239    4.9354827 4.0769129e-06 
  490400    1.7039023 -0.0036440721    2.3850946     4.935755 0.0041216794 
  490600    1.7373133 -0.0046771267    2.3358264    4.9355398 0.00019734435 
  490800    1.7055199 -0.0015915891     2.380794    4.9359318 -0.009320362 
  491000    1.7214852 -0.0064669488      2.36194    4.9361358 0.0019430532 
  491200    1.7060709 -0.0038903387    2.3834873    4.9371523 0.00065809544 
  491400    1.7363395 -0.005328232    2.3386792    4.9362818   0.01062345 
  491600    1.7383448 -0.0077063566    2.3381385     4.936369 -0.0058932814 
  491800    1.7459746 -0.0073613575    2.3267577    4.9367711 0.00088332326 
  492000    1.6962386 -0.0068760817    2.4017624    4.9377022 -0.0035893033 
  492200    1.7041319 -0.010317055    2.3933582    4.9376898 0.0037260606 
  492400    1.7268502 -0.0081591173    2.3571591    4.9377054 -0.0016684596 
  492600    1.7182332 -0.0090160316    2.3719437    4.9387154 -0.0021321171 
  492800    1.7187259 -0.010329822    2.3728065    4.9390031 0.0091752873 
  493000    1.7222445 -0.011006181    2.3685756    4.9393705 0.0018916239 
  493200    1.7330428 -0.0039063343    2.3461925    4.9402749 -0.0002232848 
  493400    1.7162557 -0.0042836419    2.3722103      4.94075 0.0030381471 
  493600    1.7280422 -0.0058847674     2.356053    4.9406605 -0.0022651107 
  493800    1.7249225 -0.006516364    2.3612824    4.9405817 -0.0010741863 
  494000    1.7157988 -0.0084186461    2.3770744     4.940794  0.001932602 
  494200    1.7417474 -0.010332177    2.3403915     4.941097  0.001171605 
  494400    1.6975469 -0.012324319    2.4086459    4.9410988 -0.0033962096 
  494600    1.7397925 -0.0096187058     2.342589    4.9410775 0.0062082573 
  494800    1.7104624 -0.0087734477    2.3866668     4.942032 -0.0003372782 
  495000    1.7467612 -0.005993917    2.3293888    4.9419487 -0.00039764074 
  495200    1.7448832 -0.0061478036    2.3322081    4.9417988 -0.0032977779 
  495400    1.7488603 -0.007018925    2.3273745    4.9420562 -0.00050729063 
  495600    1.6900231 -0.0074114391    2.4163291    4.9424159 0.0055287099 
  495800    1.7065772 -0.0070404699    2.3913232    4.9425971 -0.0010007951 
  496000    1.7262106 -0.0076062329    2.3629278    4.9430681 0.0031357507 
  496200    1.7209933 -0.011241357    2.3753713    4.9440553 -0.0053434772 
  496400    1.7487746 -0.011988254    2.3342601    4.9438439 0.0073626862 
  496600     1.699366 -0.010479696     2.407696    4.9447204 -0.0039988664 
  496800    1.7253507 -0.0097506437     2.368096    4.9448028 -0.0025958467 
  497000     1.733992 -0.010862651    2.3559367    4.9444856 0.0047722646 
  497200    1.7414262 -0.012177397    2.3466345    4.9450134 0.0076905503 
  497400    1.6990956 -0.010884806    2.4091677    4.9453817 0.0012475803 
  497600    1.7159664 -0.010567017       2.3837    4.9455226 0.0020079394 
  497800    1.7003123 -0.0091562488    2.4057543    4.9455208 -0.0027996567 
  498000    1.6835431 -0.0092032747    2.4310772    4.9456581 -0.0007347196 
  498200    1.7437816 -0.0081896939    2.3400226    4.9459201 0.0038309154 
  498400    1.6999481 -0.0068706651    2.4045265    4.9460325 -0.00086043345 
  498600    1.7474354 -0.0097584836    2.3361494    4.9459554 0.0063688394 
  498800    1.7252144 -0.0095750561    2.3702572    4.9469354 -0.00073878879 
  499000     1.714245 -0.010504113    2.3878093    4.9471143 -0.0028108015 
  499200    1.7207968 -0.0092754755     2.377317    4.9476723 -0.0015491616 
  499400    1.7341786 -0.011300344    2.3598787    4.9482698 -0.0043551613 
  499600    1.7542375 -0.011133438    2.3297336    4.9483616 0.00087359248 
  499800    1.7294165 -0.010249756    2.3661472      4.94845 -0.0016054973 
  500000    1.7478252 -0.0092993144    2.3380656    4.9489153 0.0050455354 
  500200    1.7402514 -0.010619923    2.3509811    4.9491563 0.00051226727 
  500299    1.7349478 -0.0055370468    2.3539317    4.9492391 7.1187496e-06 
Loop time of 163.394 on 1 procs for 500000 steps with 1650 atoms

Performance: 264391.555 tau/day, 3060.087 timesteps/s
99.2% CPU use with 1 MPI tasks x 1 OpenMP threads

MPI task timing breakdown:
Section |  min time  |  avg time  |  max time  |%varavg| %total
---------------------------------------------------------------
Pair    | 26.658     | 26.658     | 26.658     |   0.0 | 16.32
Bond    | 85.47      | 85.47      | 85.47      |   0.0 | 52.31
Neigh   | 25.304     | 25.304     | 25.304     |   0.0 | 15.49
Comm    | 4.0894     | 4.0894     | 4.0894     |   0.0 |  2.50
Output  | 3.2256     | 3.2256     | 3.2256     |   0.0 |  1.97
Modify  | 15.751     | 15.751     | 15.751     |   0.0 |  9.64
Other   |            | 2.896      |            |       |  1.77

Nlocal:    1650 ave 1650 max 1650 min
Histogram: 1 0 0 0 0 0 0 0 0 0
Nghost:    745 ave 745 max 745 min
Histogram: 1 0 0 0 0 0 0 0 0 0
Neighs:    1427 ave 1427 max 1427 min
Histogram: 1 0 0 0 0 0 0 0 0 0

Total # of neighbors = 1427
Ave neighs/atom = 0.864848
Ave special neighs/atom = 5.63636
Neighbor list builds = 30484
Dangerous builds = 0


# ----------------- Run Section -----------------

# The lines above define the system you want to simulate.
# What you do next is up to you.
# Typically a user would minimize and equilibrate
# the system using commands similar to the following:
#  ----   examples   ----
#
#  -- minimize --
# minimize 1.0e-5 1.0e-7 1000 10000
# (Note: Some fixes, for example "shake", interfere with the minimize command,
#        You can use the "unfix" command to disable them before minimization.)
#  -- declare time step for normal MD --
# timestep 1.0
#  -- run at constant pressure (Nose-Hoover)--
# fix   fxnpt all npt temp 300.0 300.0 100.0 iso 1.0 1.0 1000.0 drag 1.0
#  -- ALTERNATELY, run at constant volume (Nose-Hoover) --
# fix   fxnvt all nvt temp 300.0 300.0 500.0 tchain 1
#  -- ALTERNATELY, run at constant volume using Langevin dynamics. --
#  -- (This is good for sparse CG polymers in implicit solvent.)   --
# fix fxLAN all langevin 300.0 300.0 5000 48279
# fix fxNVE all nve  #(<--needed by fix langevin)
#  -- Now, finally run the simulation --
# run   50000
#  ---- (end of examples) ----

Total wall time: 0:02:44
